  Job Started  at 01:42.27 23rd March      2017

  Number of CPUs =     1

  Total number of configurations input =   1

*  Input for Configuration =   1                                               *

  Formula = Rb2F2

  Number of irreducible atoms/shells =       4

  Total number atoms/shells =       4

  Dimensionality = 3               :  Bulk

  Cartesian lattice vectors (Angstroms) :

        3.455000    0.000000    0.000000
        0.000000    3.455000    0.000000
        0.000000    0.000000    3.455000

  Cell parameters (Angstroms/Degrees):

  a =       3.4550    alpha =  90.0000
  b =       3.4550    beta  =  90.0000
  c =       3.4550    gamma =  90.0000

  Initial cell volume =          41.242421 Angs**3

  Temperature of configuration =  0.000     K

  Pressure of configuration =         0.000 GPa

  Fractional coordinates of asymmetric unit :

   No.  Atomic       x           y          z         Charge      Occupancy
        Label      (Frac)      (Frac)     (Frac)        (e)         (Frac)
      1 Rb    c    0.000000    0.000000    0.000000     0.96000    1.000000
      2 Rb    c    0.000000 *  0.500000 *  0.500000 *   0.96000    1.000000
      3 F     c    0.500000 *  0.000000 *  0.000000 *  -0.96000    1.000000
      4 F     c    0.500000 *  0.500000 *  0.500000 *  -0.96000    1.000000

*  General input information                                                   *

  Species output for all configurations :

  Species    Type    Atomic    Atomic    Charge       Radii (Angs)     Library
                     Number     Mass       (e)     Cova   Ionic  VDW   Symbol
    Rb       Core       37      85.47   0.960000   1.470  0.000  2.190
    F        Core        9      19.00  -0.960000   0.710  0.000  1.300

  Lattice summation method               =    Ewald          (3-D)
                                         =    Parry          (2-D)
                                         =    Saunders et al (1-D)
  Accuracy factor for lattice sums       =   12.000

  Time limit = Infinity

  Maximum range for interatomic potentials =    100000.000000 Angstroms

  General interatomic potentials :

Atom  Types   Potential         A         B         C         D     Cutoffs(Ang)
  1     2                                                            Min    Max
Rb   c Rb   c Buckingham    0.681E+04 0.270      0.00      0.00     0.000 12.000
F    c Rb   c Buckingham    0.221E+04 0.295      69.8      0.00     0.000 12.000
F    c F    c Buckingham    0.113E+04 0.275      0.00      0.00     0.000 12.000

*  Output for configuration   1                                                *

  Components of energy :

  Interatomic potentials     =          17.85244234 eV
  Monopole - monopole (real) =          -3.75918432 eV
  Monopole - monopole (recip)=         -15.61467824 eV
  Monopole - monopole (total)=         -19.37386255 eV
  Total lattice energy       =          -1.52142022 eV
  Total lattice energy       =            -146.7938 kJ/(mole unit cells)

  Number of variables =       15

  Maximum number of calculations  =          1000
  Maximum Hessian update interval =            10
  Maximum step size               =   1.000000000
  Maximum parameter tolerance     =   0.000010000
  Maximum function  tolerance     =   0.000010000
  Maximum gradient  tolerance     =   0.001000000
  Maximum gradient  component     =   0.010000000

  Symmetry not applied to optimisation

  Cell parameters to be optimised using strains

  Newton-Raphson optimiser to be used

  BFGS hessian update to be used

  Start of bulk optimisation :

  ** Hessian calculated **
  ** Hessian calculated **

  **** Optimisation achieved ****

  Final energy =     -14.30699922 eV
  Final Gnorm  =       0.00002479

  Components of energy :

  Interatomic potentials     =           1.58994617 eV
  Monopole - monopole (real) =          -8.35716056 eV
  Monopole - monopole (recip)=          -7.53978483 eV
  Monopole - monopole (total)=         -15.89694539 eV
  Total lattice energy       =         -14.30699922 eV
  Total lattice energy       =           -1380.4067 kJ/(mole unit cells)

  Final fractional coordinates of atoms :

   No.  Atomic        x           y          z          Radius
        Label       (Frac)      (Frac)     (Frac)       (Angs)
     1  Rb    c     0.000000    0.000000    0.000000    0.000000
     2  Rb    c     0.000000    0.500000    0.500000    0.000000
     3  F     c     0.500000    1.000000    0.000000    0.000000
     4  F     c     0.500000    0.500000    0.500000    0.000000

  Final Cartesian lattice vectors (Angstroms) :

        4.628071    0.000000    0.000000
        0.000000   10.321667    0.000000
        0.000000    0.000000   10.321667

  Final cell parameters and derivatives :

       a            4.628071 Angstrom     dE/de1(xx)     0.000366 eV/strain
       b           10.321667 Angstrom     dE/de2(yy)     0.000045 eV/strain
       c           10.321667 Angstrom     dE/de3(zz)     0.000045 eV/strain
       alpha       90.000000 Degrees      dE/de4(yz)     0.000000 eV/strain
       beta        90.000000 Degrees      dE/de5(xz)     0.000000 eV/strain
       gamma       90.000000 Degrees      dE/de6(xy)    -0.000000 eV/strain

  Primitive cell volume =           493.059901 Angs**3

  Density of cell =      0.703684 g/cm**3

  Non-primitive cell volume =           493.059901 Angs**3

  Final internal derivatives :

   No.  Atomic          a             b             c           Radius
        Label          (eV)          (eV)          (eV)        (eV/Angs)
      1 Rb    c       0.000000      0.000000      0.000000      0.000000
      2 Rb    c      -0.000000     -0.000000     -0.000000      0.000000
      3 F     c       0.000000      0.000000     -0.000000      0.000000
      4 F     c       0.000000     -0.000000      0.000000      0.000000
  Maximum abs         0.000000      0.000000      0.000000      0.000000

  Born effective charge tensors :

  Atom             x           y             z
   1 Rb    x       0.9600      0.0000      0.0000
           y       0.0000      0.9600      0.0000
           z       0.0000      0.0000      0.9600
   2 Rb    x       0.9600      0.0000      0.0000
           y       0.0000      0.9600      0.0000
           z       0.0000      0.0000      0.9600
   3 F     x      -0.9600      0.0000      0.0000
           y       0.0000     -0.9600      0.0000
           z       0.0000      0.0000     -0.9600
   4 F     x      -0.9600      0.0000      0.0000
           y       0.0000     -0.9600      0.0000
           z       0.0000      0.0000     -0.9600

  Elastic Constant Matrix: (Units=GPa)

  Indices      1         2         3         4         5         6
       1     33.5261   -0.0587   -0.0587    0.0000    0.0000    0.0000
       2     -0.0587    0.0119    0.0157   -0.0000   -0.0000   -0.0000
       3     -0.0587    0.0157    0.0119    0.0000    0.0000    0.0000
       4      0.0000   -0.0000    0.0000    0.0157    0.0000   -0.0000
       5      0.0000   -0.0000    0.0000    0.0000   -0.0586    0.0000
       6      0.0000   -0.0000    0.0000   -0.0000    0.0000   -0.0586

  Elastic Compliance Matrix: (Units=1/GPa)

  Indices      1         2         3         4         5         6
       1    0.030050  0.063713  0.063713 -0.000000 -0.000000  0.000000
       2    0.063713**********150.558829 -0.000000  0.000000  0.000000
       3    0.063713150.558829**********  0.000000 -0.000000 -0.000000
       4   -0.000000 -0.000000  0.000000 63.546827  0.000000 -0.000000
       5   -0.000000  0.000000 -0.000000  0.000000-17.067581 -0.000000
       6    0.000000  0.000000 -0.000000 -0.000000 -0.000000-17.067581

  Mechanical properties :

  Convention :                    Reuss         Voigt         Hill
  Bulk  Modulus (GPa)     =       0.01368       3.70520       1.85944
  Shear Modulus (GPa)     =      -0.01051       2.22315       1.10632
  Velocity S-wave (km/s)  =      -0.12220       1.77744       1.25387
  Velocity P-wave (km/s)  =       0.02176       3.07861       2.17685
  Compressibility (1/GPa) =   73.11596390
  Stress axis :                     x             y             z
  Youngs Moduli (GPa)     =      33.27733      -0.00876      -0.00876
  Poissons Ratio (x)      =                     0.00056       0.00056
  Poissons Ratio (y)      =      -2.12019                     1.31903
  Poissons Ratio (z)      =      -2.12019       1.31903

  Piezoelectric Strain Matrix: (Units=C/m**2)

  Indices      1         2         3         4         5         6
       x     0.00000   0.00000   0.00000   0.00000  -0.00000   0.00000
       y     0.00000  -0.00000   0.00000  -0.00000   0.00000   0.00000
       z    -0.00000  -0.00000   0.00000   0.00000   0.00000   0.00000

  Piezoelectric Stress Matrix: (Units=10**-11 C/N)

  Indices      1         2         3         4         5         6
       x     0.00000   0.00000   0.00000   0.00000   0.00000  -0.00000
       y    -0.00000   0.00000  -0.00000  -0.00000  -0.00000  -0.00000
       z     0.00000   0.00000  -0.00000   0.00000  -0.00000  -0.00000

  Static dielectric constant tensor :

              x         y         z
       x     1.08388  -0.00000  -0.00000
       y    -0.00000   2.58827   0.00000
       z    -0.00000   0.00000   2.58827

  Static refractive indices :

    1 =    1.04109      2 =    1.60881      3 =    1.60881

  Time to end of optimisation =       0.0182 seconds

  Timing analysis for GULP :

  Task / Subroutine                                          Time (Seconds)
  Calculation of reciprocal space energy and derivatives          0.0025
  Calculation of real space energy and derivatives                0.0095

  Job Finished at 01:42.27 23rd March      2017