  Job Started  at 03:08.18  2nd February   2017

  Number of CPUs =     1

  Total number of configurations input =   1

*  Input for Configuration =   1                                               *

  Formula = Na4Cl4

  Number of irreducible atoms/shells =       8

  Total number atoms/shells =       8

  Dimensionality = 3               :  Bulk

  Cartesian lattice vectors (Angstroms) :

        5.691694    0.000000    0.000000
        0.000000    5.691694    0.000000
        0.000000    0.000000    5.691694

  Cell parameters (Angstroms/Degrees):

  a =       5.6917    alpha =  90.0000
  b =       5.6917    beta  =  90.0000
  c =       5.6917    gamma =  90.0000

  Initial cell volume =         184.384593 Angs**3

  Temperature of configuration =  0.000     K

  Pressure of configuration =         0.000 GPa

  Fractional coordinates of asymmetric unit :

   No.  Atomic       x           y          z         Charge      Occupancy
        Label      (Frac)      (Frac)     (Frac)        (e)         (Frac)
      1 Na    c    0.000000    0.000000    0.000000     0.98800    1.000000
      2 Na    c    0.000000 *  0.500000 *  0.500000 *   0.98800    1.000000
      3 Na    c    0.500000 *  0.000000 *  0.500000 *   0.98800    1.000000
      4 Na    c    0.500000 *  0.500000 *  0.000000 *   0.98800    1.000000
      5 Cl    c    0.000000 *  0.000000 *  0.500000 *  -0.98800    1.000000
      6 Cl    c    0.000000 *  0.500000 *  0.000000 *  -0.98800    1.000000
      7 Cl    c    0.500000 *  0.000000 *  0.000000 *  -0.98800    1.000000
      8 Cl    c    0.500000 *  0.500000 *  0.500000 *  -0.98800    1.000000

*  General input information                                                   *

  Species output for all configurations :

  Species    Type    Atomic    Atomic    Charge       Radii (Angs)     Library
                     Number     Mass       (e)     Cova   Ionic  VDW   Symbol
    Na       Core       11      22.99   0.988000   0.970  0.000  2.300
    Cl       Core       17      35.45  -0.988000   0.990  0.000  1.650

  Lattice summation method               =    Ewald          (3-D)
                                         =    Parry          (2-D)
                                         =    Saunders et al (1-D)
  Accuracy factor for lattice sums       =   12.000

  Time limit = Infinity

  Maximum range for interatomic potentials =    100000.000000 Angstroms

  General interatomic potentials :

Atom  Types   Potential         A         B         C         D     Cutoffs(Ang)
  1     2                                                            Min    Max
Na   c Cl   c Buckingham    0.101E+04 0.290      0.00      0.00     0.000 12.000
Cl   c Cl   c Buckingham    0.120E+04 0.336      0.00      0.00     0.000 12.000

*  Output for configuration   1                                                *

  Components of energy :

  Interatomic potentials     =           1.52582554 eV
  Monopole - monopole (real) =         -11.11694993 eV
  Monopole - monopole (recip)=         -23.40940859 eV
  Monopole - monopole (total)=         -34.52635851 eV
  Total lattice energy       =         -33.00053298 eV
  Total lattice energy       =           -3184.0470 kJ/(mole unit cells)

  Number of variables =       27

  Maximum number of calculations  =          1000
  Maximum Hessian update interval =            10
  Maximum step size               =   1.000000000
  Maximum parameter tolerance     =   0.000010000
  Maximum function  tolerance     =   0.000010000
  Maximum gradient  tolerance     =   0.001000000
  Maximum gradient  component     =   0.010000000

  Symmetry not applied to optimisation

  Cell parameters to be optimised using strains

  Newton-Raphson optimiser to be used

  BFGS hessian update to be used

  Start of bulk optimisation :

  ** Hessian calculated **

  **** Optimisation achieved ****

  Final energy =     -34.17261303 eV
  Final Gnorm  =       0.00013237

  Components of energy :

  Interatomic potentials     =           4.21077746 eV
  Monopole - monopole (real) =         -12.35885417 eV
  Monopole - monopole (recip)=         -26.02453631 eV
  Monopole - monopole (total)=         -38.38339049 eV
  Total lattice energy       =         -34.17261303 eV
  Total lattice energy       =           -3297.1348 kJ/(mole unit cells)

  Final fractional coordinates of atoms :

   No.  Atomic        x           y          z          Radius
        Label       (Frac)      (Frac)     (Frac)       (Angs)
     1  Na    c     0.000000    0.000000    0.000000    0.000000
     2  Na    c     0.000000    0.500000    0.500000    0.000000
     3  Na    c     0.500000    0.000000    0.500000    0.000000
     4  Na    c     0.500000    0.500000    0.000000    0.000000
     5  Cl    c     0.000000    0.000000    0.500000    0.000000
     6  Cl    c     0.000000    0.500000    0.000000    0.000000
     7  Cl    c     0.500000    0.000000    0.000000    0.000000
     8  Cl    c     0.500000    0.500000    0.500000    0.000000

  Final Cartesian lattice vectors (Angstroms) :

        5.119753    0.000000    0.000000
        0.000000    5.119753    0.000000
        0.000000    0.000000    5.119753

  Final cell parameters and derivatives :

       a            5.119753 Angstrom     dE/de1(xx)    -0.002063 eV/strain
       b            5.119753 Angstrom     dE/de2(yy)    -0.002063 eV/strain
       c            5.119753 Angstrom     dE/de3(zz)    -0.002063 eV/strain
       alpha       90.000000 Degrees      dE/de4(yz)    -0.000000 eV/strain
       beta        90.000000 Degrees      dE/de5(xz)    -0.000000 eV/strain
       gamma       90.000000 Degrees      dE/de6(xy)     0.000000 eV/strain

  Primitive cell volume =           134.198282 Angs**3

  Density of cell =      2.892539 g/cm**3

  Non-primitive cell volume =           134.198282 Angs**3

  Final internal derivatives :

   No.  Atomic          a             b             c           Radius
        Label          (eV)          (eV)          (eV)        (eV/Angs)
      1 Na    c       0.000000      0.000000      0.000000      0.000000
      2 Na    c       0.000000     -0.000000     -0.000000      0.000000
      3 Na    c       0.000000      0.000000     -0.000000      0.000000
      4 Na    c       0.000000     -0.000000     -0.000000      0.000000
      5 Cl    c       0.000000      0.000000      0.000000      0.000000
      6 Cl    c       0.000000     -0.000000     -0.000000      0.000000
      7 Cl    c      -0.000000      0.000000     -0.000000      0.000000
      8 Cl    c      -0.000000     -0.000000      0.000000      0.000000
  Maximum abs         0.000000      0.000000      0.000000      0.000000

  Born effective charge tensors :

  Atom             x           y             z
   1 Na    x       0.9880      0.0000      0.0000
           y       0.0000      0.9880      0.0000
           z       0.0000      0.0000      0.9880
   2 Na    x       0.9880      0.0000      0.0000
           y       0.0000      0.9880      0.0000
           z       0.0000      0.0000      0.9880
   3 Na    x       0.9880      0.0000      0.0000
           y       0.0000      0.9880      0.0000
           z       0.0000      0.0000      0.9880
   4 Na    x       0.9880      0.0000      0.0000
           y       0.0000      0.9880      0.0000
           z       0.0000      0.0000      0.9880
   5 Cl    x      -0.9880      0.0000      0.0000
           y       0.0000     -0.9880      0.0000
           z       0.0000      0.0000     -0.9880
   6 Cl    x      -0.9880      0.0000      0.0000
           y       0.0000     -0.9880      0.0000
           z       0.0000      0.0000     -0.9880
   7 Cl    x      -0.9880      0.0000      0.0000
           y       0.0000     -0.9880      0.0000
           z       0.0000      0.0000     -0.9880
   8 Cl    x      -0.9880      0.0000      0.0000
           y       0.0000     -0.9880      0.0000
           z       0.0000      0.0000     -0.9880

  Elastic Constant Matrix: (Units=GPa)

  Indices      1         2         3         4         5         6
       1     57.5004   26.1094   26.1094   -0.0000    0.0000    0.0000
       2     26.1094   57.5004   26.1094    0.0000    0.0000    0.0000
       3     26.1094   26.1094   57.5004   -0.0000   -0.0000    0.0000
       4     -0.0000    0.0000   -0.0000   26.1069    0.0000    0.0000
       5      0.0000    0.0000   -0.0000    0.0000   26.1069   -0.0000
       6      0.0000    0.0000    0.0000    0.0000   -0.0000   26.1069

  Elastic Compliance Matrix: (Units=1/GPa)

  Indices      1         2         3         4         5         6
       1    0.024276 -0.007581 -0.007581  0.000000 -0.000000 -0.000000
       2   -0.007581  0.024276 -0.007581 -0.000000 -0.000000 -0.000000
       3   -0.007581 -0.007581  0.024276  0.000000  0.000000  0.000000
       4    0.000000 -0.000000  0.000000  0.038304 -0.000000 -0.000000
       5   -0.000000 -0.000000  0.000000 -0.000000  0.038304  0.000000
       6   -0.000000 -0.000000  0.000000 -0.000000  0.000000  0.038304

  Mechanical properties :

  Convention :                    Reuss         Voigt         Hill
  Bulk  Modulus (GPa)     =      36.57306      36.57306      36.57306
  Shear Modulus (GPa)     =      20.63244      21.94236      21.28740
  Velocity S-wave (km/s)  =       2.67076       2.75424       2.71282
  Velocity P-wave (km/s)  =       4.70686       4.77058       4.73883
  Compressibility (1/GPa) =    0.02734253
  Stress axis :                     x             y             z
  Youngs Moduli (GPa)     =      41.19378      41.19378      41.19378
  Poissons Ratio (x)      =                     0.31228       0.31228
  Poissons Ratio (y)      =       0.31228                     0.31228
  Poissons Ratio (z)      =       0.31228       0.31228

  Piezoelectric Strain Matrix: (Units=C/m**2)

  Indices      1         2         3         4         5         6
       x    -0.00000  -0.00000  -0.00000   0.00000   0.00000   0.00000
       y    -0.00000   0.00000   0.00000  -0.00000   0.00000  -0.00000
       z    -0.00000  -0.00000   0.00000   0.00000  -0.00000   0.00000

  Piezoelectric Stress Matrix: (Units=10**-11 C/N)

  Indices      1         2         3         4         5         6
       x    -0.00000   0.00000   0.00000   0.00000   0.00000   0.00000
       y    -0.00000   0.00000   0.00000  -0.00000   0.00000  -0.00000
       z    -0.00000  -0.00000   0.00000   0.00000  -0.00000   0.00000

  Static dielectric constant tensor :

              x         y         z
       x     6.25232  -0.00000   0.00000
       y    -0.00000   6.25232  -0.00000
       z     0.00000  -0.00000   6.25232

  Static refractive indices :

    1 =    2.50046      2 =    2.50046      3 =    2.50046

  Time to end of optimisation =       0.0271 seconds

  Timing analysis for GULP :

  Task / Subroutine                                          Time (Seconds)
  Calculation of reciprocal space energy and derivatives          0.0019
  Calculation of real space energy and derivatives                0.0113
  Calculation of matrix inversion                                 0.0002

  Job Finished at 03:08.19  2nd February   2017