  Job Started  at 15:19.13 23rd February   2017

  Number of CPUs =     1

  Total number of configurations input =   1

*  Input for Configuration =   1                                               *

  Formula = Na4Cl4

  Number of irreducible atoms/shells =       8

  Total number atoms/shells =       8

  Dimensionality = 3               :  Bulk

  Cartesian lattice vectors (Angstroms) :

        5.692000    0.000000    0.000000
        0.000000    5.692000    0.000000
        0.000000    0.000000    5.692000

  Cell parameters (Angstroms/Degrees):

  a =       5.6920    alpha =  90.0000
  b =       5.6920    beta  =  90.0000
  c =       5.6920    gamma =  90.0000

  Initial cell volume =         184.414334 Angs**3

  Temperature of configuration =  0.000     K

  Pressure of configuration =         0.000 GPa

  Fractional coordinates of asymmetric unit :

   No.  Atomic       x           y          z         Charge      Occupancy
        Label      (Frac)      (Frac)     (Frac)        (e)         (Frac)
      1 Na    c    0.000000    0.000000    0.000000     0.98800    1.000000
      2 Na    c    0.000000 *  0.500000 *  0.500000 *   0.98800    1.000000
      3 Na    c    0.500000 *  0.000000 *  0.500000 *   0.98800    1.000000
      4 Na    c    0.500000 *  0.500000 *  0.000000 *   0.98800    1.000000
      5 Cl    c    0.000000 *  0.000000 *  0.500000 *  -0.98800    1.000000
      6 Cl    c    0.000000 *  0.500000 *  0.000000 *  -0.98800    1.000000
      7 Cl    c    0.500000 *  0.000000 *  0.000000 *  -0.98800    1.000000
      8 Cl    c    0.500000 *  0.500000 *  0.500000 *  -0.98800    1.000000

*  General input information                                                   *

  Species output for all configurations :

  Species    Type    Atomic    Atomic    Charge       Radii (Angs)     Library
                     Number     Mass       (e)     Cova   Ionic  VDW   Symbol
    Na       Core       11      22.99   0.988000   0.970  0.000  2.300
    Cl       Core       17      35.45  -0.988000   0.990  0.000  1.650

  Lattice summation method               =    Ewald          (3-D)
                                         =    Parry          (2-D)
                                         =    Saunders et al (1-D)
  Accuracy factor for lattice sums       =   12.000

  Time limit = Infinity

  Maximum range for interatomic potentials =    100000.000000 Angstroms

  General interatomic potentials :

Atom  Types   Potential         A         B         C         D     Cutoffs(Ang)
  1     2                                                            Min    Max
Na   c Na   c Buckingham    0.790E+04 0.171      0.00      0.00     0.000 12.000
Na   c Cl   c Buckingham    0.231E+04 0.290      0.00      0.00     0.000 12.000
Cl   c Cl   c Buckingham    0.123E+04 0.321      29.1      0.00     0.000 12.000

*  Output for configuration   1                                                *

  Components of energy :

  Interatomic potentials     =           2.98499662 eV
  Monopole - monopole (real) =         -11.11635228 eV
  Monopole - monopole (recip)=         -23.40815011 eV
  Monopole - monopole (total)=         -34.52450239 eV
  Total lattice energy       =         -31.53950576 eV
  Total lattice energy       =           -3043.0802 kJ/(mole unit cells)

  Number of variables =       27

  Maximum number of calculations  =          1000
  Maximum Hessian update interval =            10
  Maximum step size               =   1.000000000
  Maximum parameter tolerance     =   0.000010000
  Maximum function  tolerance     =   0.000010000
  Maximum gradient  tolerance     =   0.001000000
  Maximum gradient  component     =   0.010000000

  Symmetry not applied to optimisation

  Cell parameters to be optimised using strains

  Newton-Raphson optimiser to be used

  BFGS hessian update to be used

  Start of bulk optimisation :

  ** Hessian calculated **

  **** Optimisation achieved ****

  Final energy =     -31.57536596 eV
  Final Gnorm  =       0.00000000

  Components of energy :

  Interatomic potentials     =           3.51746927 eV
  Monopole - monopole (real) =         -11.29934661 eV
  Monopole - monopole (recip)=         -23.79348862 eV
  Monopole - monopole (total)=         -35.09283524 eV
  Total lattice energy       =         -31.57536596 eV
  Total lattice energy       =           -3046.5401 kJ/(mole unit cells)

  Final fractional coordinates of atoms :

   No.  Atomic        x           y          z          Radius
        Label       (Frac)      (Frac)     (Frac)       (Angs)
     1  Na    c     0.000000    0.000000    0.000000    0.000000
     2  Na    c     0.000000    0.500000    0.500000    0.000000
     3  Na    c     0.500000    0.000000    0.500000    0.000000
     4  Na    c     0.500000    0.500000    0.000000    0.000000
     5  Cl    c     0.000000    0.000000    0.500000    0.000000
     6  Cl    c     0.000000    0.500000    0.000000    0.000000
     7  Cl    c     0.500000    0.000000    0.000000    0.000000
     8  Cl    c     0.500000    0.500000    0.500000    0.000000

  Final Cartesian lattice vectors (Angstroms) :

        5.599817    0.000000    0.000000
        0.000000    5.599817    0.000000
        0.000000    0.000000    5.599817

  Final cell parameters and derivatives :

       a            5.599817 Angstrom     dE/de1(xx)    -0.000000 eV/strain
       b            5.599817 Angstrom     dE/de2(yy)    -0.000000 eV/strain
       c            5.599817 Angstrom     dE/de3(zz)    -0.000000 eV/strain
       alpha       90.000000 Degrees      dE/de4(yz)     0.000000 eV/strain
       beta        90.000000 Degrees      dE/de5(xz)     0.000000 eV/strain
       gamma       90.000000 Degrees      dE/de6(xy)     0.000000 eV/strain

  Primitive cell volume =           175.598817 Angs**3

  Density of cell =      2.210572 g/cm**3

  Non-primitive cell volume =           175.598817 Angs**3

  Final internal derivatives :

   No.  Atomic          a             b             c           Radius
        Label          (eV)          (eV)          (eV)        (eV/Angs)
      1 Na    c       0.000000      0.000000      0.000000      0.000000
      2 Na    c      -0.000000      0.000000      0.000000      0.000000
      3 Na    c      -0.000000      0.000000      0.000000      0.000000
      4 Na    c      -0.000000      0.000000      0.000000      0.000000
      5 Cl    c      -0.000000      0.000000     -0.000000      0.000000
      6 Cl    c      -0.000000     -0.000000      0.000000      0.000000
      7 Cl    c       0.000000      0.000000      0.000000      0.000000
      8 Cl    c       0.000000     -0.000000     -0.000000      0.000000
  Maximum abs         0.000000      0.000000      0.000000      0.000000

  Born effective charge tensors :

  Atom             x           y             z
   1 Na    x       0.9880      0.0000      0.0000
           y       0.0000      0.9880      0.0000
           z       0.0000      0.0000      0.9880
   2 Na    x       0.9880      0.0000      0.0000
           y       0.0000      0.9880      0.0000
           z       0.0000      0.0000      0.9880
   3 Na    x       0.9880      0.0000      0.0000
           y       0.0000      0.9880      0.0000
           z       0.0000      0.0000      0.9880
   4 Na    x       0.9880      0.0000      0.0000
           y       0.0000      0.9880      0.0000
           z       0.0000      0.0000      0.9880
   5 Cl    x      -0.9880      0.0000      0.0000
           y       0.0000     -0.9880      0.0000
           z       0.0000      0.0000     -0.9880
   6 Cl    x      -0.9880      0.0000      0.0000
           y       0.0000     -0.9880      0.0000
           z       0.0000      0.0000     -0.9880
   7 Cl    x      -0.9880      0.0000      0.0000
           y       0.0000     -0.9880      0.0000
           z       0.0000      0.0000     -0.9880
   8 Cl    x      -0.9880      0.0000      0.0000
           y       0.0000     -0.9880      0.0000
           z       0.0000      0.0000     -0.9880

  Elastic Constant Matrix: (Units=GPa)

  Indices      1         2         3         4         5         6
       1     56.5910   13.7641   13.7641   -0.0000    0.0000    0.0000
       2     13.7641   56.5910   13.7641    0.0000    0.0000   -0.0000
       3     13.7641   13.7641   56.5910   -0.0000   -0.0000   -0.0000
       4     -0.0000    0.0000   -0.0000   13.7641    0.0000    0.0000
       5      0.0000    0.0000   -0.0000    0.0000   13.7641   -0.0000
       6      0.0000   -0.0000   -0.0000    0.0000   -0.0000   13.7641

  Elastic Compliance Matrix: (Units=1/GPa)

  Indices      1         2         3         4         5         6
       1    0.019529 -0.003821 -0.003821  0.000000 -0.000000 -0.000000
       2   -0.003821  0.019529 -0.003821 -0.000000 -0.000000  0.000000
       3   -0.003821 -0.003821  0.019529  0.000000  0.000000 -0.000000
       4    0.000000 -0.000000  0.000000  0.072653 -0.000000 -0.000000
       5   -0.000000 -0.000000  0.000000 -0.000000  0.072653  0.000000
       6   -0.000000  0.000000 -0.000000 -0.000000  0.000000  0.072653

  Mechanical properties :

  Convention :                    Reuss         Voigt         Hill
  Bulk  Modulus (GPa)     =      28.03973      28.03973      28.03973
  Shear Modulus (GPa)     =      16.05870      16.82384      16.44127
  Velocity S-wave (km/s)  =       2.69527       2.75874       2.72719
  Velocity P-wave (km/s)  =       4.72973       4.77827       4.75406
  Compressibility (1/GPa) =    0.03566368
  Stress axis :                     x             y             z
  Youngs Moduli (GPa)     =      51.20546      51.20546      51.20546
  Poissons Ratio (x)      =                     0.19564       0.19564
  Poissons Ratio (y)      =       0.19564                     0.19564
  Poissons Ratio (z)      =       0.19564       0.19564

  Piezoelectric Strain Matrix: (Units=C/m**2)

  Indices      1         2         3         4         5         6
       x     0.00000  -0.00000  -0.00000  -0.00000  -0.00000  -0.00000
       y    -0.00000   0.00000  -0.00000  -0.00000  -0.00000   0.00000
       z    -0.00000  -0.00000   0.00000  -0.00000   0.00000  -0.00000

  Piezoelectric Stress Matrix: (Units=10**-11 C/N)

  Indices      1         2         3         4         5         6
       x     0.00000  -0.00000  -0.00000  -0.00000  -0.00000  -0.00000
       y    -0.00000   0.00000  -0.00000  -0.00000  -0.00000   0.00000
       z    -0.00000  -0.00000   0.00000  -0.00000   0.00000  -0.00000

  Static dielectric constant tensor :

              x         y         z
       x     3.71490   0.00000  -0.00000
       y     0.00000   3.71490   0.00000
       z    -0.00000   0.00000   3.71490

  Static refractive indices :

    1 =    1.92741      2 =    1.92741      3 =    1.92741

  Time to end of optimisation =       0.0140 seconds

  Timing analysis for GULP :

  Task / Subroutine                                          Time (Seconds)
  Calculation of reciprocal space energy and derivatives          0.0014
  Calculation of real space energy and derivatives                0.0088

  Job Finished at 15:19.13 23rd February   2017