  Job Started  at 18:35.35 15th March      2017

  Number of CPUs =     1

  Total number of configurations input =   1

*  Input for Configuration =   1                                               *

  Formula = Na2Cl2

  Number of irreducible atoms/shells =       4

  Total number atoms/shells =       4

  Dimensionality = 3               :  Bulk

  Cartesian lattice vectors (Angstroms) :

        3.504400    0.000000    0.000000
        0.000000    3.504400    0.000000
        0.000000    0.000000    3.504400

  Cell parameters (Angstroms/Degrees):

  a =       3.5044    alpha =  90.0000
  b =       3.5044    beta  =  90.0000
  c =       3.5044    gamma =  90.0000

  Initial cell volume =          43.036903 Angs**3

  Temperature of configuration =  0.000     K

  Pressure of configuration =         0.000 GPa

  Fractional coordinates of asymmetric unit :

   No.  Atomic       x           y          z         Charge      Occupancy
        Label      (Frac)      (Frac)     (Frac)        (e)         (Frac)
      1 Na    c    0.000000    0.000000    0.000000     0.98800    1.000000
      2 Na    c    0.000000 *  0.500000 *  0.500000 *   0.98800    1.000000
      3 Cl    c    0.500000 *  0.000000 *  0.000000 *  -0.98800    1.000000
      4 Cl    c    0.500000 *  0.500000 *  0.500000 *  -0.98800    1.000000

*  General input information                                                   *

  Species output for all configurations :

  Species    Type    Atomic    Atomic    Charge       Radii (Angs)     Library
                     Number     Mass       (e)     Cova   Ionic  VDW   Symbol
    Na       Core       11      22.99   0.988000   0.970  0.000  2.300
    Cl       Core       17      35.45  -0.988000   0.990  0.000  1.650

  Lattice summation method               =    Ewald          (3-D)
                                         =    Parry          (2-D)
                                         =    Saunders et al (1-D)
  Accuracy factor for lattice sums       =   12.000

  Time limit = Infinity

  Maximum range for interatomic potentials =    100000.000000 Angstroms

  General interatomic potentials :

Atom  Types   Potential         A         B         C         D     Cutoffs(Ang)
  1     2                                                            Min    Max
Na   c Na   c Buckingham    0.790E+04 0.171      0.00      0.00     0.000 12.000
Na   c Cl   c Buckingham    0.231E+04 0.290      0.00      0.00     0.000 12.000
Cl   c Cl   c Buckingham    0.123E+04 0.321      29.1      0.00     0.000 12.000

*  Output for configuration   1                                                *

  Components of energy :

  Interatomic potentials     =          24.93205053 eV
  Monopole - monopole (real) =          -3.92554015 eV
  Monopole - monopole (recip)=         -16.30567728 eV
  Monopole - monopole (total)=         -20.23121743 eV
  Total lattice energy       =           4.70083310 eV
  Total lattice energy       =             453.5585 kJ/(mole unit cells)

  Number of variables =       15

  Maximum number of calculations  =          1000
  Maximum Hessian update interval =            10
  Maximum step size               =   1.000000000
  Maximum parameter tolerance     =   0.000010000
  Maximum function  tolerance     =   0.000010000
  Maximum gradient  tolerance     =   0.001000000
  Maximum gradient  component     =   0.010000000

  Symmetry not applied to optimisation

  Cell parameters to be optimised using strains

  Newton-Raphson optimiser to be used

  BFGS hessian update to be used

  Start of bulk optimisation :

  ** Hessian calculated **
  ** Hessian calculated **
  ** Hessian calculated **

  **** Optimisation achieved ****

  Final energy =     -13.91384935 eV
  Final Gnorm  =       0.00008809

  Components of energy :

  Interatomic potentials     =           1.84903104 eV
  Monopole - monopole (real) =          -9.76427460 eV
  Monopole - monopole (recip)=          -5.99860580 eV
  Monopole - monopole (total)=         -15.76288040 eV
  Total lattice energy       =         -13.91384935 eV
  Total lattice energy       =           -1342.4738 kJ/(mole unit cells)

  Final fractional coordinates of atoms :

   No.  Atomic        x           y          z          Radius
        Label       (Frac)      (Frac)     (Frac)       (Angs)
     1  Na    c     0.000000    0.000000    0.000000    0.000000
     2  Na    c     0.000000    0.500000    0.500000    0.000000
     3  Cl    c     0.500000    1.000000    0.000000    0.000000
     4  Cl    c     0.500000    0.500000    0.500000    0.000000

  Final Cartesian lattice vectors (Angstroms) :

        4.944783    0.000000   -0.000000
        0.000000   15.346144   -0.000000
       -0.000000   -0.000000   15.346144

  Final cell parameters and derivatives :

       a            4.944783 Angstrom     dE/de1(xx)     0.001320 eV/strain
       b           15.346144 Angstrom     dE/de2(yy)    -0.000034 eV/strain
       c           15.346144 Angstrom     dE/de3(zz)    -0.000034 eV/strain
       alpha       90.000000 Degrees      dE/de4(yz)    -0.000000 eV/strain
       beta        90.000000 Degrees      dE/de5(xz)     0.000000 eV/strain
       gamma       90.000000 Degrees      dE/de6(xy)     0.000000 eV/strain

  Primitive cell volume =          1164.516890 Angs**3

  Density of cell =      0.166667 g/cm**3

  Non-primitive cell volume =          1164.516890 Angs**3

  Final internal derivatives :

   No.  Atomic          a             b             c           Radius
        Label          (eV)          (eV)          (eV)        (eV/Angs)
      1 Na    c       0.000000      0.000000      0.000000      0.000000
      2 Na    c       0.000000     -0.000000     -0.000000      0.000000
      3 Cl    c      -0.000000     -0.000000     -0.000000      0.000000
      4 Cl    c      -0.000000      0.000000      0.000000      0.000000
  Maximum abs         0.000000      0.000000      0.000000      0.000000

  Born effective charge tensors :

  Atom             x           y             z
   1 Na    x       0.9880      0.0000      0.0000
           y       0.0000      0.9880      0.0000
           z       0.0000      0.0000      0.9880
   2 Na    x       0.9880      0.0000      0.0000
           y       0.0000      0.9880      0.0000
           z       0.0000      0.0000      0.9880
   3 Cl    x      -0.9880      0.0000      0.0000
           y       0.0000     -0.9880      0.0000
           z       0.0000      0.0000     -0.9880
   4 Cl    x      -0.9880      0.0000      0.0000
           y       0.0000     -0.9880      0.0000
           z       0.0000      0.0000     -0.9880

  Elastic Constant Matrix: (Units=GPa)

  Indices      1         2         3         4         5         6
       1     14.1464   -0.0008   -0.0008    0.0000   -0.0000    0.0000
       2     -0.0008    0.0003    0.0003    0.0000   -0.0000    0.0000
       3     -0.0008    0.0003    0.0003    0.0000   -0.0000   -0.0000
       4      0.0000    0.0000    0.0000    0.0003   -0.0000   -0.0000
       5     -0.0000   -0.0000   -0.0000   -0.0000   -0.0007    0.0000
       6      0.0000    0.0000   -0.0000   -0.0000    0.0000   -0.0007

  Elastic Compliance Matrix: (Units=1/GPa)

  Indices      1         2         3         4         5         6
       1    0.070702  0.108951  0.108951 -0.000000 -0.000000 -0.000000
       2    0.108951********************  0.000000 -0.000000 -0.000000
       3    0.108951******************** -0.000000  0.000000  0.000000
       4   -0.000000  0.000000 -0.000000********** -0.000000 -0.000000
       5   -0.000000 -0.000000  0.000000 -0.000000********** -0.000000
       6   -0.000000 -0.000000  0.000000 -0.000000 -0.000000**********

  Mechanical properties :

  Convention :                    Reuss         Voigt         Hill
  Bulk  Modulus (GPa)     =       0.00026       1.57158       0.78592
  Shear Modulus (GPa)     =      -0.00001       0.94298       0.47149
  Velocity S-wave (km/s)  =      -0.00802       2.37863       1.68193
  Velocity P-wave (km/s)  =       0.03833       4.11986       2.91331
  Compressibility (1/GPa) = 3859.39504279
  Stress axis :                     x             y             z
  Youngs Moduli (GPa)     =      14.14390      -0.00001      -0.00001
  Poissons Ratio (x)      =                     0.00000       0.00000
  Poissons Ratio (y)      =      -1.54099                     1.01661
  Poissons Ratio (z)      =      -1.54099       1.01661

  Piezoelectric Strain Matrix: (Units=C/m**2)

  Indices      1         2         3         4         5         6
       x     0.00000   0.00000   0.00000  -0.00000   0.00000   0.00000
       y     0.00000   0.00000   0.00000  -0.00000  -0.00000  -0.00000
       z     0.00000  -0.00000  -0.00000   0.00000  -0.00000  -0.00000

  Piezoelectric Stress Matrix: (Units=10**-11 C/N)

  Indices      1         2         3         4         5         6
       x     0.00000   0.00000  -0.00000  -0.00000  -0.00000  -0.00000
       y     0.00000  -0.00006   0.00007  -0.00000   0.00000   0.00000
       z    -0.00000  -0.00000   0.00000   0.00000   0.00000   0.00000

  Static dielectric constant tensor :

              x         y         z
       x     1.04285  -0.00000   0.00000
       y    -0.00000   1.59001   0.00000
       z     0.00000   0.00000   1.59001

  Static refractive indices :

    1 =    1.02120      2 =    1.26096      3 =    1.26096

  Time to end of optimisation =       0.0140 seconds

  Timing analysis for GULP :

  Task / Subroutine                                          Time (Seconds)
  Calculation of reciprocal space energy and derivatives          0.0018
  Calculation of real space energy and derivatives                0.0076

  Job Finished at 18:35.35 15th March      2017