  Job Started  at 15:13.45 23rd February   2017

  Number of CPUs =     1

  Total number of configurations input =   1

*  Input for Configuration =   1                                               *

  Formula = Rb4I4

  Number of irreducible atoms/shells =       8

  Total number atoms/shells =       8

  Dimensionality = 3               :  Bulk

  Cartesian lattice vectors (Angstroms) :

        7.488000    0.000000    0.000000
        0.000000    7.488000    0.000000
        0.000000    0.000000    7.488000

  Cell parameters (Angstroms/Degrees):

  a =       7.4880    alpha =  90.0000
  b =       7.4880    beta  =  90.0000
  c =       7.4880    gamma =  90.0000

  Initial cell volume =         419.853238 Angs**3

  Temperature of configuration =  0.000     K

  Pressure of configuration =         0.000 GPa

  Fractional coordinates of asymmetric unit :

   No.  Atomic       x           y          z         Charge      Occupancy
        Label      (Frac)      (Frac)     (Frac)        (e)         (Frac)
      1 Rb    c    0.000000    0.000000    0.000000     0.99900    1.000000
      2 Rb    c    0.000000 *  0.500000 *  0.500000 *   0.99900    1.000000
      3 Rb    c    0.500000 *  0.000000 *  0.500000 *   0.99900    1.000000
      4 Rb    c    0.500000 *  0.500000 *  0.000000 *   0.99900    1.000000
      5 I     c    0.000000 *  0.000000 *  0.500000 *  -0.99900    1.000000
      6 I     c    0.000000 *  0.500000 *  0.000000 *  -0.99900    1.000000
      7 I     c    0.500000 *  0.000000 *  0.000000 *  -0.99900    1.000000
      8 I     c    0.500000 *  0.500000 *  0.500000 *  -0.99900    1.000000

*  General input information                                                   *

  Species output for all configurations :

  Species    Type    Atomic    Atomic    Charge       Radii (Angs)     Library
                     Number     Mass       (e)     Cova   Ionic  VDW   Symbol
    Rb       Core       37      85.47   0.999000   1.470  0.000  2.190
    I        Core       53     126.91  -0.999000   1.400  0.000  2.050

  Lattice summation method               =    Ewald          (3-D)
                                         =    Parry          (2-D)
                                         =    Saunders et al (1-D)
  Accuracy factor for lattice sums       =   12.000

  Time limit = Infinity

  Maximum range for interatomic potentials =    100000.000000 Angstroms

  General interatomic potentials :

Atom  Types   Potential         A         B         C         D     Cutoffs(Ang)
  1     2                                                            Min    Max
Rb   c Rb   c Buckingham    0.681E+04 0.270      0.00      0.00     0.000 12.000
Rb   c I    c Buckingham    0.528E+04 0.343      0.00      0.00     0.000 12.000
I    c I    c Buckingham    0.550E+04 0.307      401.      0.00     0.000 12.000

*  Output for configuration   1                                                *

  Components of energy :

  Interatomic potentials     =           1.80740244 eV
  Monopole - monopole (real) =          -8.63929779 eV
  Monopole - monopole (recip)=         -18.19211684 eV
  Monopole - monopole (total)=         -26.83141464 eV
  Total lattice energy       =         -25.02401220 eV
  Total lattice energy       =           -2414.4347 kJ/(mole unit cells)

  Number of variables =       27

  Maximum number of calculations  =          1000
  Maximum Hessian update interval =            10
  Maximum step size               =   1.000000000
  Maximum parameter tolerance     =   0.000010000
  Maximum function  tolerance     =   0.000010000
  Maximum gradient  tolerance     =   0.001000000
  Maximum gradient  component     =   0.010000000

  Symmetry not applied to optimisation

  Cell parameters to be optimised using strains

  Newton-Raphson optimiser to be used

  BFGS hessian update to be used

  Start of bulk optimisation :

  ** Hessian calculated **

  **** Optimisation achieved ****

  Final energy =     -25.07110149 eV
  Final Gnorm  =       0.00000027

  Components of energy :

  Interatomic potentials     =           2.30157253 eV
  Monopole - monopole (real) =          -8.81357489 eV
  Monopole - monopole (recip)=         -18.55909913 eV
  Monopole - monopole (total)=         -27.37267402 eV
  Total lattice energy       =         -25.07110149 eV
  Total lattice energy       =           -2418.9780 kJ/(mole unit cells)

  Final fractional coordinates of atoms :

   No.  Atomic        x           y          z          Radius
        Label       (Frac)      (Frac)     (Frac)       (Angs)
     1  Rb    c     0.000000    0.000000    0.000000    0.000000
     2  Rb    c     0.000000    0.500000    0.500000    0.000000
     3  Rb    c     0.500000    0.000000    0.500000    0.000000
     4  Rb    c     0.500000    0.500000    0.000000    0.000000
     5  I     c     0.000000    0.000000    0.500000    0.000000
     6  I     c     0.000000    0.500000    0.000000    0.000000
     7  I     c     0.500000    0.000000    0.000000    0.000000
     8  I     c     0.500000    0.500000    0.500000    0.000000

  Final Cartesian lattice vectors (Angstroms) :

        7.339934    0.000000    0.000000
        0.000000    7.339934    0.000000
        0.000000    0.000000    7.339934

  Final cell parameters and derivatives :

       a            7.339934 Angstrom     dE/de1(xx)     0.000004 eV/strain
       b            7.339934 Angstrom     dE/de2(yy)     0.000004 eV/strain
       c            7.339934 Angstrom     dE/de3(zz)     0.000004 eV/strain
       alpha       90.000000 Degrees      dE/de4(yz)    -0.000000 eV/strain
       beta        90.000000 Degrees      dE/de5(xz)    -0.000000 eV/strain
       gamma       90.000000 Degrees      dE/de6(xy)    -0.000000 eV/strain

  Primitive cell volume =           395.436308 Angs**3

  Density of cell =      3.567410 g/cm**3

  Non-primitive cell volume =           395.436308 Angs**3

  Final internal derivatives :

   No.  Atomic          a             b             c           Radius
        Label          (eV)          (eV)          (eV)        (eV/Angs)
      1 Rb    c       0.000000      0.000000      0.000000      0.000000
      2 Rb    c       0.000000     -0.000000     -0.000000      0.000000
      3 Rb    c      -0.000000      0.000000     -0.000000      0.000000
      4 Rb    c      -0.000000     -0.000000      0.000000      0.000000
      5 I     c       0.000000      0.000000     -0.000000      0.000000
      6 I     c       0.000000     -0.000000      0.000000      0.000000
      7 I     c      -0.000000      0.000000      0.000000      0.000000
      8 I     c      -0.000000     -0.000000     -0.000000      0.000000
  Maximum abs         0.000000      0.000000      0.000000      0.000000

  Born effective charge tensors :

  Atom             x           y             z
   1 Rb    x       0.9990      0.0000      0.0000
           y       0.0000      0.9990      0.0000
           z       0.0000      0.0000      0.9990
   2 Rb    x       0.9990      0.0000      0.0000
           y       0.0000      0.9990      0.0000
           z       0.0000      0.0000      0.9990
   3 Rb    x       0.9990      0.0000      0.0000
           y       0.0000      0.9990      0.0000
           z       0.0000      0.0000      0.9990
   4 Rb    x       0.9990      0.0000      0.0000
           y       0.0000      0.9990      0.0000
           z       0.0000      0.0000      0.9990
   5 I     x      -0.9990      0.0000      0.0000
           y       0.0000     -0.9990      0.0000
           z       0.0000      0.0000     -0.9990
   6 I     x      -0.9990      0.0000      0.0000
           y       0.0000     -0.9990      0.0000
           z       0.0000      0.0000     -0.9990
   7 I     x      -0.9990      0.0000      0.0000
           y       0.0000     -0.9990      0.0000
           z       0.0000      0.0000     -0.9990
   8 I     x      -0.9990      0.0000      0.0000
           y       0.0000     -0.9990      0.0000
           z       0.0000      0.0000     -0.9990

  Elastic Constant Matrix: (Units=GPa)

  Indices      1         2         3         4         5         6
       1     26.7308    3.6357    3.6357    0.0000   -0.0000    0.0000
       2      3.6357   26.7308    3.6357   -0.0000   -0.0000   -0.0000
       3      3.6357    3.6357   26.7308   -0.0000   -0.0000    0.0000
       4      0.0000   -0.0000   -0.0000    3.6357   -0.0000   -0.0000
       5     -0.0000   -0.0000   -0.0000   -0.0000    3.6357    0.0000
       6      0.0000   -0.0000    0.0000   -0.0000    0.0000    3.6357

  Elastic Compliance Matrix: (Units=1/GPa)

  Indices      1         2         3         4         5         6
       1    0.038669 -0.004630 -0.004630 -0.000000  0.000000 -0.000000
       2   -0.004630  0.038669 -0.004630  0.000000  0.000000  0.000000
       3   -0.004630 -0.004630  0.038669  0.000000  0.000000 -0.000000
       4   -0.000000  0.000000  0.000000  0.275053  0.000000  0.000000
       5    0.000000  0.000000  0.000000  0.000000  0.275053 -0.000000
       6   -0.000000  0.000000 -0.000000  0.000000 -0.000000  0.275053

  Mechanical properties :

  Convention :                    Reuss         Voigt         Hill
  Bulk  Modulus (GPa)     =      11.33403      11.33403      11.33403
  Shear Modulus (GPa)     =       5.00824       6.80042       5.90433
  Velocity S-wave (km/s)  =       1.18486       1.38067       1.28650
  Velocity P-wave (km/s)  =       2.24699       2.39140       2.32032
  Compressibility (1/GPa) =    0.08822987
  Stress axis :                     x             y             z
  Youngs Moduli (GPa)     =      25.86019      25.86019      25.86019
  Poissons Ratio (x)      =                     0.11973       0.11973
  Poissons Ratio (y)      =       0.11973                     0.11973
  Poissons Ratio (z)      =       0.11973       0.11973

  Piezoelectric Strain Matrix: (Units=C/m**2)

  Indices      1         2         3         4         5         6
       x     0.00000  -0.00000  -0.00000  -0.00000  -0.00000   0.00000
       y     0.00000  -0.00000   0.00000  -0.00000  -0.00000  -0.00000
       z    -0.00000  -0.00000   0.00000   0.00000   0.00000  -0.00000

  Piezoelectric Stress Matrix: (Units=10**-11 C/N)

  Indices      1         2         3         4         5         6
       x     0.00000  -0.00000  -0.00000  -0.00000  -0.00000   0.00000
       y     0.00000  -0.00000   0.00000  -0.00000  -0.00000  -0.00000
       z    -0.00000  -0.00000   0.00000   0.00000   0.00000  -0.00000

  Static dielectric constant tensor :

              x         y         z
       x     2.75189   0.00000   0.00000
       y     0.00000   2.75189   0.00000
       z     0.00000   0.00000   2.75189

  Static refractive indices :

    1 =    1.65888      2 =    1.65888      3 =    1.65888

  Time to end of optimisation =       0.0124 seconds

  Timing analysis for GULP :

  Task / Subroutine                                          Time (Seconds)
  Calculation of reciprocal space energy and derivatives          0.0012
  Calculation of real space energy and derivatives                0.0076

  Job Finished at 15:13.45 23rd February   2017