  Job Started  at 14:20.10 23rd February   2017

  Number of CPUs =     1

  Total number of configurations input =   1

*  Input for Configuration =   1                                               *

  Formula = Li4Cl4

  Number of irreducible atoms/shells =       8

  Total number atoms/shells =       8

  Dimensionality = 3               :  Bulk

  Cartesian lattice vectors (Angstroms) :

        5.153000    0.000000    0.000000
        0.000000    5.153000    0.000000
        0.000000    0.000000    5.153000

  Cell parameters (Angstroms/Degrees):

  a =       5.1530    alpha =  90.0000
  b =       5.1530    beta  =  90.0000
  c =       5.1530    gamma =  90.0000

  Initial cell volume =         136.829717 Angs**3

  Temperature of configuration =  0.000     K

  Pressure of configuration =         0.000 GPa

  Fractional coordinates of asymmetric unit :

   No.  Atomic       x           y          z         Charge      Occupancy
        Label      (Frac)      (Frac)     (Frac)        (e)         (Frac)
      1 Li    c    0.000000    0.000000    0.000000     0.99500    1.000000
      2 Li    c    0.000000 *  0.500000 *  0.500000 *   0.99500    1.000000
      3 Li    c    0.500000 *  0.000000 *  0.500000 *   0.99500    1.000000
      4 Li    c    0.500000 *  0.500000 *  0.000000 *   0.99500    1.000000
      5 Cl    c    0.000000 *  0.000000 *  0.500000 *  -0.99500    1.000000
      6 Cl    c    0.000000 *  0.500000 *  0.000000 *  -0.99500    1.000000
      7 Cl    c    0.500000 *  0.000000 *  0.000000 *  -0.99500    1.000000
      8 Cl    c    0.500000 *  0.500000 *  0.500000 *  -0.99500    1.000000

*  General input information                                                   *

  Species output for all configurations :

  Species    Type    Atomic    Atomic    Charge       Radii (Angs)     Library
                     Number     Mass       (e)     Cova   Ionic  VDW   Symbol
    Li       Core        3       6.94   0.995000   0.680  0.000  1.800
    Cl       Core       17      35.45  -0.995000   0.990  0.000  1.650

  Lattice summation method               =    Ewald          (3-D)
                                         =    Parry          (2-D)
                                         =    Saunders et al (1-D)
  Accuracy factor for lattice sums       =   12.000

  Time limit = Infinity

  Maximum range for interatomic potentials =    100000.000000 Angstroms

  General interatomic potentials :

Atom  Types   Potential         A         B         C         D     Cutoffs(Ang)
  1     2                                                            Min    Max
Li   c Li   c Buckingham    0.115E+04 0.136      0.00      0.00     0.000 12.000
Li   c Cl   c Buckingham    0.138E+04 0.279      0.00      0.00     0.000 12.000
Cl   c Cl   c Buckingham    0.123E+04 0.321     0.340      0.00     0.000 12.000

*  Output for configuration   1                                                *

  Components of energy :

  Interatomic potentials     =           3.54472002 eV
  Monopole - monopole (real) =         -12.45372646 eV
  Monopole - monopole (recip)=         -26.22431271 eV
  Monopole - monopole (total)=         -38.67803918 eV
  Total lattice energy       =         -35.13331915 eV
  Total lattice energy       =           -3389.8282 kJ/(mole unit cells)

  Number of variables =       27

  Maximum number of calculations  =          1000
  Maximum Hessian update interval =            10
  Maximum step size               =   1.000000000
  Maximum parameter tolerance     =   0.000010000
  Maximum function  tolerance     =   0.000010000
  Maximum gradient  tolerance     =   0.001000000
  Maximum gradient  component     =   0.010000000

  Symmetry not applied to optimisation

  Cell parameters to be optimised using strains

  Newton-Raphson optimiser to be used

  BFGS hessian update to be used

  Start of bulk optimisation :

  ** Hessian calculated **

  **** Optimisation achieved ****

  Final energy =     -35.18313049 eV
  Final Gnorm  =       0.00010198

  Components of energy :

  Interatomic potentials     =           4.23707049 eV
  Monopole - monopole (real) =         -12.69269101 eV
  Monopole - monopole (recip)=         -26.72750997 eV
  Monopole - monopole (total)=         -39.42020098 eV
  Total lattice energy       =         -35.18313049 eV
  Total lattice energy       =           -3394.6343 kJ/(mole unit cells)

  Final fractional coordinates of atoms :

   No.  Atomic        x           y          z          Radius
        Label       (Frac)      (Frac)     (Frac)       (Angs)
     1  Li    c     0.000000    0.000000    0.000000    0.000000
     2  Li    c     0.000000    0.500000    0.500000    0.000000
     3  Li    c     0.500000    0.000000    0.500000    0.000000
     4  Li    c     0.500000    0.500000    0.000000    0.000000
     5  Cl    c     0.000000    0.000000    0.500000    0.000000
     6  Cl    c     0.000000    0.500000    0.000000    0.000000
     7  Cl    c     0.500000    0.000000    0.000000    0.000000
     8  Cl    c     0.500000    0.500000    0.500000    0.000000

  Final Cartesian lattice vectors (Angstroms) :

        5.055985    0.000000    0.000000
        0.000000    5.055985    0.000000
        0.000000    0.000000    5.055985

  Final cell parameters and derivatives :

       a            5.055985 Angstrom     dE/de1(xx)     0.001590 eV/strain
       b            5.055985 Angstrom     dE/de2(yy)     0.001590 eV/strain
       c            5.055985 Angstrom     dE/de3(zz)     0.001590 eV/strain
       alpha       90.000000 Degrees      dE/de4(yz)    -0.000000 eV/strain
       beta        90.000000 Degrees      dE/de5(xz)    -0.000000 eV/strain
       gamma       90.000000 Degrees      dE/de6(xy)     0.000000 eV/strain

  Primitive cell volume =           129.246048 Angs**3

  Density of cell =      2.178523 g/cm**3

  Non-primitive cell volume =           129.246048 Angs**3

  Final internal derivatives :

   No.  Atomic          a             b             c           Radius
        Label          (eV)          (eV)          (eV)        (eV/Angs)
      1 Li    c       0.000000      0.000000      0.000000      0.000000
      2 Li    c       0.000000     -0.000000     -0.000000      0.000000
      3 Li    c      -0.000000      0.000000     -0.000000      0.000000
      4 Li    c      -0.000000      0.000000     -0.000000      0.000000
      5 Cl    c       0.000000      0.000000      0.000000      0.000000
      6 Cl    c       0.000000     -0.000000     -0.000000      0.000000
      7 Cl    c      -0.000000     -0.000000     -0.000000      0.000000
      8 Cl    c      -0.000000      0.000000      0.000000      0.000000
  Maximum abs         0.000000      0.000000      0.000000      0.000000

  Born effective charge tensors :

  Atom             x           y             z
   1 Li    x       0.9950      0.0000      0.0000
           y       0.0000      0.9950      0.0000
           z       0.0000      0.0000      0.9950
   2 Li    x       0.9950      0.0000      0.0000
           y       0.0000      0.9950      0.0000
           z       0.0000      0.0000      0.9950
   3 Li    x       0.9950      0.0000      0.0000
           y       0.0000      0.9950      0.0000
           z       0.0000      0.0000      0.9950
   4 Li    x       0.9950      0.0000      0.0000
           y       0.0000      0.9950      0.0000
           z       0.0000      0.0000      0.9950
   5 Cl    x      -0.9950      0.0000      0.0000
           y       0.0000     -0.9950      0.0000
           z       0.0000      0.0000     -0.9950
   6 Cl    x      -0.9950      0.0000      0.0000
           y       0.0000     -0.9950      0.0000
           z       0.0000      0.0000     -0.9950
   7 Cl    x      -0.9950      0.0000      0.0000
           y       0.0000     -0.9950      0.0000
           z       0.0000      0.0000     -0.9950
   8 Cl    x      -0.9950      0.0000      0.0000
           y       0.0000     -0.9950      0.0000
           z       0.0000      0.0000     -0.9950

  Elastic Constant Matrix: (Units=GPa)

  Indices      1         2         3         4         5         6
       1     68.2739   25.7381   25.7381    0.0000    0.0000   -0.0000
       2     25.7381   68.2739   25.7381    0.0000   -0.0000   -0.0000
       3     25.7381   25.7381   68.2739    0.0000    0.0000   -0.0000
       4      0.0000    0.0000    0.0000   25.7401   -0.0000   -0.0000
       5      0.0000   -0.0000    0.0000   -0.0000   25.7401    0.0000
       6     -0.0000   -0.0000   -0.0000   -0.0000    0.0000   25.7401

  Elastic Compliance Matrix: (Units=1/GPa)

  Indices      1         2         3         4         5         6
       1    0.018457 -0.005053 -0.005053  0.000000 -0.000000 -0.000000
       2   -0.005053  0.018457 -0.005053 -0.000000  0.000000  0.000000
       3   -0.005053 -0.005053  0.018457 -0.000000 -0.000000  0.000000
       4    0.000000 -0.000000 -0.000000  0.038850  0.000000  0.000000
       5   -0.000000  0.000000 -0.000000  0.000000  0.038850 -0.000000
       6   -0.000000  0.000000  0.000000  0.000000 -0.000000  0.038850

  Mechanical properties :

  Convention :                    Reuss         Voigt         Hill
  Bulk  Modulus (GPa)     =      39.91670      39.91670      39.91670
  Shear Modulus (GPa)     =      23.74302      23.95120      23.84711
  Velocity S-wave (km/s)  =       3.30131       3.31576       3.30854
  Velocity P-wave (km/s)  =       5.73188       5.74298       5.73743
  Compressibility (1/GPa) =    0.02505217
  Stress axis :                     x             y             z
  Youngs Moduli (GPa)     =      54.18103      54.18103      54.18103
  Poissons Ratio (x)      =                     0.27377       0.27377
  Poissons Ratio (y)      =       0.27377                     0.27377
  Poissons Ratio (z)      =       0.27377       0.27377

  Piezoelectric Strain Matrix: (Units=C/m**2)

  Indices      1         2         3         4         5         6
       x     0.00000   0.00000   0.00000   0.00000   0.00000  -0.00000
       y    -0.00000  -0.00000  -0.00000   0.00000   0.00000   0.00000
       z     0.00000   0.00000   0.00000  -0.00000   0.00000   0.00000

  Piezoelectric Stress Matrix: (Units=10**-11 C/N)

  Indices      1         2         3         4         5         6
       x     0.00000  -0.00000  -0.00000   0.00000   0.00000  -0.00000
       y    -0.00000  -0.00000   0.00000   0.00000   0.00000   0.00000
       z    -0.00000  -0.00000   0.00000  -0.00000   0.00000   0.00000

  Static dielectric constant tensor :

              x         y         z
       x     5.14702  -0.00000   0.00000
       y    -0.00000   5.14702   0.00000
       z     0.00000   0.00000   5.14702

  Static refractive indices :

    1 =    2.26871      2 =    2.26871      3 =    2.26871

  Time to end of optimisation =       0.0150 seconds

  Timing analysis for GULP :

  Task / Subroutine                                          Time (Seconds)
  Calculation of reciprocal space energy and derivatives          0.0016
  Calculation of real space energy and derivatives                0.0091

  Job Finished at 14:20.10 23rd February   2017