  Job Started  at 01:57.37 26th January    2017

  Number of CPUs =     1

  Total number of configurations input =   1

*  Input for Configuration =   1                                               *

  Formula = MgO

  Number of irreducible atoms/shells =       2

  Total number atoms/shells =       2

  Dimensionality = 3               :  Bulk

  Symmetry :

  Crystal family                   :  Cubic
  Crystal class  (Groth - 1921)    :  Cubic Hexakisoctahedral

  Space group (centrosymmetric)    :  F M 3 M

  Patterson group                  :  F m -3 m

  Cartesian lattice vectors (Angstroms) :

        0.000000    2.128242    2.128242
        2.128242    0.000000    2.128242
        2.128242    2.128242    0.000000

  Primitive cell parameters :            Full cell parameters :

  a =   3.0098    alpha =  60.0000       a =   4.2565    alpha =  90.0000
  b =   3.0098    beta  =  60.0000       b =   4.2565    beta  =  90.0000
  c =   3.0098    gamma =  60.0000       c =   4.2565    gamma =  90.0000

  Initial volumes (Angstroms**3):

  Primitive cell =          19.279365    Full cell =          77.117459

  Temperature of configuration =  0.000     K

  Pressure of configuration =         0.000 GPa

  Fractional coordinates of asymmetric unit :

   No.  Atomic       x           y          z         Charge      Occupancy
        Label      (Frac)      (Frac)     (Frac)        (e)         (Frac)
      1 Mg    c    0.000000    0.000000    0.000000     2.00000    1.000000
      2 O     c    0.500000    0.500000    0.500000    -2.00000    1.000000

  Constraints :

  Constraint no.      Unconstrained     Constrained    Coefficient    Offset
                         Variable         Variable
           1              Strain 1        Strain 2       1.00000      0.0000
           2              Strain 1        Strain 3       1.00000      0.0000

*  General input information                                                   *

  Species output for all configurations :

  Species    Type    Atomic    Atomic    Charge       Radii (Angs)     Library
                     Number     Mass       (e)     Cova   Ionic  VDW   Symbol
    Mg       Core       12      24.31   2.000000   1.100  0.000  1.640
    O        Core        8      16.00  -2.000000   0.730  0.000  1.360

  Lattice summation method               =    Ewald          (3-D)
                                         =    Parry          (2-D)
                                         =    Saunders et al (1-D)
  Accuracy factor for lattice sums       =   12.000

  Time limit = Infinity

  Maximum range for interatomic potentials =    100000.000000 Angstroms

  General interatomic potentials :

Atom  Types   Potential         A         B         C         D     Cutoffs(Ang)
  1     2                                                            Min    Max
O    c Mg   c Buckingham     822.     0.324      0.00      0.00     0.000  0.000
O    c O    c Buckingham    0.228E+05 0.149      0.00      0.00     0.000 27.880

*  Output for configuration   1                                                *

  Components of energy :

  Interatomic potentials     =           0.00023054 eV
  Monopole - monopole (real) =          -5.06238949 eV
  Monopole - monopole (recip)=         -42.23394967 eV
  Monopole - monopole (total)=         -47.29633916 eV
  Total lattice energy :
    Primitive unit cell      =         -47.29610863 eV
    Non-primitive unit cell  =        -189.18443451 eV
  Total lattice energy (in kJmol-1):
    Primitive unit cell      =           -4563.3515 kJ/(mole unit cells)
    Non-primitive unit cell  =          -18253.4060 kJ/(mole unit cells)

  Number of variables =        1

  Maximum number of calculations  =          1000
  Maximum Hessian update interval =            10
  Maximum step size               =   1.000000000
  Maximum parameter tolerance     =   0.000010000
  Maximum function  tolerance     =   0.000010000
  Maximum gradient  tolerance     =   0.001000000
  Maximum gradient  component     =   0.010000000

  Symmetry constrained optimisation

  Symmetry used for second derivatives

  Cell parameters to be optimised using strains

  Newton-Raphson optimiser to be used

  BFGS hessian update to be used

  Start of bulk optimisation :

  ** Hessian calculated **
  ** Hessian calculated **

  **** Optimisation achieved ****

  Final energy =     -90.22468546 eV
  Final Gnorm  =       0.00010236

  Components of energy :

  Interatomic potentials     =          10.57690196 eV
  Monopole - monopole (real) =         -10.78935295 eV
  Monopole - monopole (recip)=         -90.01223447 eV
  Monopole - monopole (total)=        -100.80158742 eV
  Total lattice energy :
    Primitive unit cell      =         -90.22468546 eV
    Non-primitive unit cell  =        -360.89874186 eV
  Total lattice energy (in kJmol-1):
    Primitive unit cell      =           -8705.3029 kJ/(mole unit cells)
    Non-primitive unit cell  =          -34821.2117 kJ/(mole unit cells)

  Final asymmetric unit coordinates :

   No.  Atomic        x           y           z         Radius
        Label       (Frac)      (Frac)      (Frac)       (Angs)
     1  Mg    c     0.000000    0.000000    0.000000    0.000000
     2  O     c     0.500000    0.500000    0.500000    0.000000

  Final Cartesian lattice vectors (Angstroms) :

        0.000000    0.998576    0.998576
        0.998576    0.000000    0.998576
        0.998576    0.998576    0.000000

  Final cell parameters and derivatives :

       a            1.412200 Angstrom     dE/de1(xx)     0.000102 eV/strain
       b            1.412200 Angstrom     dE/de2(yy)     0.000000 eV/strain
       c            1.412200 Angstrom     dE/de3(zz)     0.000000 eV/strain
       alpha       60.000000 Degrees      dE/de4(yz)     0.000000 eV/strain
       beta        60.000000 Degrees      dE/de5(xz)     0.000000 eV/strain
       gamma       60.000000 Degrees      dE/de6(xy)     0.000000 eV/strain

  Primitive cell volume =             1.991467 Angs**3

  Density of cell =     33.612098 g/cm**3

  Non-primitive lattice parameters :

  a    =     1.997152  b   =     1.997152  c    =     1.997152
  alpha=    90.000000  beta=    90.000000  gamma=    90.000000

  Non-primitive cell volume =             7.965869 Angs**3

  Final internal derivatives :

   No.  Atomic          a             b             c           Radius
        Label          (eV)          (eV)          (eV)        (eV/Angs)
      1 Mg    c       0.000000      0.000000      0.000000      0.000000
      2 O     c       0.000000      0.000000      0.000000      0.000000
  Maximum abs         0.000000      0.000000      0.000000      0.000000

  Born effective charge tensors :

  Atom             x           y             z
   1 Mg    x       2.0000      0.0000      0.0000
           y       0.0000      2.0000      0.0000
           z       0.0000      0.0000      2.0000
   2 O     x      -2.0000      0.0000      0.0000
           y       0.0000     -2.0000      0.0000
           z       0.0000      0.0000     -2.0000

  Elastic Constant Matrix: (Units=GPa)

  Indices      1         2         3         4         5         6
       1    -28.866110227.970810227.9708   -0.0000   -0.0000   -0.0000
       2  10227.9708  -28.866110227.9708    0.0000   -0.0000   -0.0000
       3  10227.970810227.9708  -28.8661    0.0000   -0.0000    0.0000
       4     -0.0000    0.0000    0.000010227.9736    0.0000   -0.0000
       5     -0.0000   -0.0000   -0.0000    0.000010227.9736   -0.0000
       6     -0.0000   -0.0000    0.0000   -0.0000   -0.000010227.9736

  Elastic Compliance Matrix: (Units=1/GPa)

  Indices      1         2         3         4         5         6
       1   -0.000049  0.000049  0.000049 -0.000000  0.000000 -0.000000
       2    0.000049 -0.000049  0.000049  0.000000  0.000000 -0.000000
       3    0.000049  0.000049 -0.000049  0.000000 -0.000000  0.000000
       4   -0.000000  0.000000  0.000000  0.000098 -0.000000  0.000000
       5    0.000000  0.000000 -0.000000 -0.000000  0.000098  0.000000
       6   -0.000000 -0.000000  0.000000  0.000000  0.000000  0.000098

  Mechanical properties :

  Convention :                    Reuss         Voigt         Hill
  Bulk  Modulus (GPa)     =    6809.02519    6809.02519    6809.02519
  Shear Modulus (GPa)     =  -51722.06326    4085.41676  -23818.32325
  Velocity S-wave (km/s)  =     -39.22745      11.02479     -26.61998
  Velocity P-wave (km/s)  =      43.00171      19.09550      27.24435
  Compressibility (1/GPa) =    0.00014686
  Stress axis :                     x             y             z
  Youngs Moduli (GPa)     =  -20542.70326  -20542.70326  -20542.70326
  Poissons Ratio (x)      =                     1.00283       1.00283
  Poissons Ratio (y)      =       1.00283                     1.00283
  Poissons Ratio (z)      =       1.00283       1.00283

  Piezoelectric Strain Matrix: (Units=C/m**2)

  Indices      1         2         3         4         5         6
       x    -0.00000  -0.00000  -0.00000  -0.00000  -0.00000  -0.00000
       y    -0.00000   0.00000  -0.00000  -0.00000  -0.00000  -0.00000
       z    -0.00000  -0.00000  -0.00000  -0.00000  -0.00000  -0.00000

  Piezoelectric Stress Matrix: (Units=10**-11 C/N)

  Indices      1         2         3         4         5         6
       x    -0.00000  -0.00000  -0.00000  -0.00000  -0.00000  -0.00000
       y     0.00000  -0.00000   0.00000  -0.00000  -0.00000  -0.00000
       z    -0.00000  -0.00000  -0.00000  -0.00000  -0.00000  -0.00000

  Static dielectric constant tensor :

              x         y         z
       x    -2.00000  -0.00000   0.00000
       y    -0.00000  -2.00000  -0.00000
       z     0.00000  -0.00000  -2.00000

  Static refractive indices :

    1 =   -1.41421      2 =   -1.41421      3 =   -1.41421

  Time to end of optimisation =    1010.4999 seconds

  Timing analysis for GULP :

  Task / Subroutine                                          Time (Seconds)
  Calculation of reciprocal space energy and derivatives          0.0008
  Calculation of reciprocal space energy using symmetry           0.0008
  Calculation of real space energy and derivatives                0.0256
  Calculation of real space energy using symmetry              1010.4610
  Symmetry generation of equivalent positions                     0.0014

  Marvin file written as example1.mvn
  XR file written as example1.xr

  Job Finished at 02:24.14 26th January    2017