  Job Started  at 11:04.21 27th February   2017

  Number of CPUs =     1

  Total number of configurations input =   1

*  Input for Configuration =   1                                               *

  Formula = K4I4

  Number of irreducible atoms/shells =       8

  Total number atoms/shells =       8

  Dimensionality = 3               :  Bulk

  Cartesian lattice vectors (Angstroms) :

        7.185000    0.000000    0.000000
        0.000000    7.185000    0.000000
        0.000000    0.000000    7.185000

  Cell parameters (Angstroms/Degrees):

  a =       7.1850    alpha =  90.0000
  b =       7.1850    beta  =  90.0000
  c =       7.1850    gamma =  90.0000

  Initial cell volume =         370.920057 Angs**3

  Temperature of configuration =  0.000     K

  Pressure of configuration =         0.000 GPa

  Fractional coordinates of asymmetric unit :

   No.  Atomic       x           y          z         Charge      Occupancy
        Label      (Frac)      (Frac)     (Frac)        (e)         (Frac)
      1 K     c    0.000000    0.000000    0.000000     0.99400    1.000000
      2 K     c    0.000000 *  0.500000 *  0.500000 *   0.99400    1.000000
      3 K     c    0.500000 *  0.000000 *  0.500000 *   0.99400    1.000000
      4 K     c    0.500000 *  0.500000 *  0.000000 *   0.99400    1.000000
      5 I     c    0.000000 *  0.000000 *  0.500000 *  -0.99400    1.000000
      6 I     c    0.000000 *  0.500000 *  0.000000 *  -0.99400    1.000000
      7 I     c    0.500000 *  0.000000 *  0.000000 *  -0.99400    1.000000
      8 I     c    0.500000 *  0.500000 *  0.500000 *  -0.99400    1.000000

*  General input information                                                   *

  Species output for all configurations :

  Species    Type    Atomic    Atomic    Charge       Radii (Angs)     Library
                     Number     Mass       (e)     Cova   Ionic  VDW   Symbol
    K        Core       19      39.10   0.994000   1.330  0.000  2.800
    I        Core       53     126.91  -0.994000   1.400  0.000  2.050

  Lattice summation method               =    Ewald          (3-D)
                                         =    Parry          (2-D)
                                         =    Saunders et al (1-D)
  Accuracy factor for lattice sums       =   12.000

  Time limit = Infinity

  Maximum range for interatomic potentials =    100000.000000 Angstroms

  General interatomic potentials :

Atom  Types   Potential         A         B         C         D     Cutoffs(Ang)
  1     2                                                            Min    Max
K    c K    c Buckingham    0.380E+04 0.260      0.00      0.00     0.000 12.000
K    c I    c Buckingham    0.584E+04 0.326      286.      0.00     0.000 12.000
I    c I    c Buckingham    0.550E+04 0.307      0.00      0.00     0.000 12.000

*  Output for configuration   1                                                *

  Components of energy :

  Interatomic potentials     =          -1.14655833 eV
  Monopole - monopole (real) =          -8.91372641 eV
  Monopole - monopole (recip)=         -18.76999221 eV
  Monopole - monopole (total)=         -27.68371861 eV
  Total lattice energy       =         -28.83027694 eV
  Total lattice energy       =           -2781.6810 kJ/(mole unit cells)

  Number of variables =       27

  Maximum number of calculations  =          1000
  Maximum Hessian update interval =            10
  Maximum step size               =   1.000000000
  Maximum parameter tolerance     =   0.000010000
  Maximum function  tolerance     =   0.000010000
  Maximum gradient  tolerance     =   0.001000000
  Maximum gradient  component     =   0.010000000

  Symmetry not applied to optimisation

  Cell parameters to be optimised using strains

  Newton-Raphson optimiser to be used

  BFGS hessian update to be used

  Start of bulk optimisation :

  ** Hessian calculated **

  **** Optimisation achieved ****

  Final energy =     -30.27698480 eV
  Final Gnorm  =       0.00000000

  Components of energy :

  Interatomic potentials     =           0.48689826 eV
  Monopole - monopole (real) =          -9.90549141 eV
  Monopole - monopole (recip)=         -20.85839166 eV
  Monopole - monopole (total)=         -30.76388306 eV
  Total lattice energy       =         -30.27698480 eV
  Total lattice energy       =           -2921.2662 kJ/(mole unit cells)

  Final fractional coordinates of atoms :

   No.  Atomic        x           y          z          Radius
        Label       (Frac)      (Frac)     (Frac)       (Angs)
     1  K     c     0.000000    0.000000    0.000000    0.000000
     2  K     c     0.000000    0.500000    0.500000    0.000000
     3  K     c     0.500000    0.000000    0.500000    0.000000
     4  K     c     0.500000    0.500000    0.000000    0.000000
     5  I     c     0.000000    0.000000    0.500000    0.000000
     6  I     c     0.000000    0.500000    0.000000    0.000000
     7  I     c     0.500000    0.000000    0.000000    0.000000
     8  I     c     0.500000    0.500000    0.500000    0.000000

  Final Cartesian lattice vectors (Angstroms) :

        6.465618    0.000000    0.000000
        0.000000    6.465618    0.000000
        0.000000    0.000000    6.465618

  Final cell parameters and derivatives :

       a            6.465618 Angstrom     dE/de1(xx)     0.000000 eV/strain
       b            6.465618 Angstrom     dE/de2(yy)     0.000000 eV/strain
       c            6.465618 Angstrom     dE/de3(zz)     0.000000 eV/strain
       alpha       90.000000 Degrees      dE/de4(yz)     0.000000 eV/strain
       beta        90.000000 Degrees      dE/de5(xz)     0.000000 eV/strain
       gamma       90.000000 Degrees      dE/de6(xy)    -0.000000 eV/strain

  Primitive cell volume =           270.290101 Angs**3

  Density of cell =      4.079624 g/cm**3

  Non-primitive cell volume =           270.290101 Angs**3

  Final internal derivatives :

   No.  Atomic          a             b             c           Radius
        Label          (eV)          (eV)          (eV)        (eV/Angs)
      1 K     c       0.000000      0.000000      0.000000      0.000000
      2 K     c       0.000000      0.000000      0.000000      0.000000
      3 K     c      -0.000000     -0.000000      0.000000      0.000000
      4 K     c      -0.000000      0.000000     -0.000000      0.000000
      5 I     c       0.000000     -0.000000      0.000000      0.000000
      6 I     c       0.000000      0.000000      0.000000      0.000000
      7 I     c      -0.000000     -0.000000     -0.000000      0.000000
      8 I     c      -0.000000      0.000000      0.000000      0.000000
  Maximum abs         0.000000      0.000000      0.000000      0.000000

  Born effective charge tensors :

  Atom             x           y             z
   1 K     x       0.9940      0.0000      0.0000
           y       0.0000      0.9940      0.0000
           z       0.0000      0.0000      0.9940
   2 K     x       0.9940      0.0000      0.0000
           y       0.0000      0.9940      0.0000
           z       0.0000      0.0000      0.9940
   3 K     x       0.9940      0.0000      0.0000
           y       0.0000      0.9940      0.0000
           z       0.0000      0.0000      0.9940
   4 K     x       0.9940      0.0000      0.0000
           y       0.0000      0.9940      0.0000
           z       0.0000      0.0000      0.9940
   5 I     x      -0.9940      0.0000      0.0000
           y       0.0000     -0.9940      0.0000
           z       0.0000      0.0000     -0.9940
   6 I     x      -0.9940      0.0000      0.0000
           y       0.0000     -0.9940      0.0000
           z       0.0000      0.0000     -0.9940
   7 I     x      -0.9940      0.0000      0.0000
           y       0.0000     -0.9940      0.0000
           z       0.0000      0.0000     -0.9940
   8 I     x      -0.9940      0.0000      0.0000
           y       0.0000     -0.9940      0.0000
           z       0.0000      0.0000     -0.9940

  Elastic Constant Matrix: (Units=GPa)

  Indices      1         2         3         4         5         6
       1     58.4015    6.5755    6.5755    0.0000   -0.0000    0.0000
       2      6.5755   58.4015    6.5755    0.0000   -0.0000    0.0000
       3      6.5755    6.5755   58.4015   -0.0000    0.0000   -0.0000
       4      0.0000    0.0000   -0.0000    6.5755    0.0000   -0.0000
       5     -0.0000   -0.0000    0.0000    0.0000    6.5755    0.0000
       6      0.0000    0.0000   -0.0000   -0.0000    0.0000    6.5755

  Elastic Compliance Matrix: (Units=1/GPa)

  Indices      1         2         3         4         5         6
       1    0.017522 -0.001773 -0.001773 -0.000000  0.000000 -0.000000
       2   -0.001773  0.017522 -0.001773 -0.000000  0.000000 -0.000000
       3   -0.001773 -0.001773  0.017522  0.000000 -0.000000  0.000000
       4   -0.000000 -0.000000  0.000000  0.152079 -0.000000  0.000000
       5    0.000000  0.000000 -0.000000 -0.000000  0.152079 -0.000000
       6   -0.000000 -0.000000  0.000000  0.000000 -0.000000  0.152079

  Mechanical properties :

  Convention :                    Reuss         Voigt         Hill
  Bulk  Modulus (GPa)     =      23.85086      23.85086      23.85086
  Shear Modulus (GPa)     =       9.37351      14.31052      11.84202
  Velocity S-wave (km/s)  =       1.51580       1.87291       1.70374
  Velocity P-wave (km/s)  =       2.98494       3.24398       3.11715
  Compressibility (1/GPa) =    0.04192720
  Stress axis :                     x             y             z
  Youngs Moduli (GPa)     =      57.07066      57.07066      57.07066
  Poissons Ratio (x)      =                     0.10120       0.10120
  Poissons Ratio (y)      =       0.10120                     0.10120
  Poissons Ratio (z)      =       0.10120       0.10120

  Piezoelectric Strain Matrix: (Units=C/m**2)

  Indices      1         2         3         4         5         6
       x     0.00000   0.00000   0.00000   0.00000   0.00000  -0.00000
       y    -0.00000  -0.00000  -0.00000   0.00000   0.00000  -0.00000
       z     0.00000  -0.00000   0.00000  -0.00000  -0.00000   0.00000

  Piezoelectric Stress Matrix: (Units=10**-11 C/N)

  Indices      1         2         3         4         5         6
       x     0.00000   0.00000   0.00000   0.00000   0.00000  -0.00000
       y    -0.00000  -0.00000  -0.00000   0.00000   0.00000  -0.00000
       z    -0.00000  -0.00000   0.00000  -0.00000  -0.00000   0.00000

  Static dielectric constant tensor :

              x         y         z
       x     2.30811  -0.00000  -0.00000
       y    -0.00000   2.30811   0.00000
       z    -0.00000   0.00000   2.30811

  Static refractive indices :

    1 =    1.51925      2 =    1.51925      3 =    1.51925

  Time to end of optimisation =       0.0161 seconds

  Timing analysis for GULP :

  Task / Subroutine                                          Time (Seconds)
  Calculation of reciprocal space energy and derivatives          0.0018
  Calculation of real space energy and derivatives                0.0100

  Job Finished at 11:04.21 27th February   2017