  Job Started  at 13:00.21 27th February   2017

  Number of CPUs =     1

  Total number of configurations input =   1

*  Input for Configuration =   1                                               *

  Formula = Na4Br4

  Number of irreducible atoms/shells =       8

  Total number atoms/shells =       8

  Dimensionality = 3               :  Bulk

  Cartesian lattice vectors (Angstroms) :

        6.028000    0.000000    0.000000
        0.000000    6.028000    0.000000
        0.000000    0.000000    6.028000

  Cell parameters (Angstroms/Degrees):

  a =       6.0280    alpha =  90.0000
  b =       6.0280    beta  =  90.0000
  c =       6.0280    gamma =  90.0000

  Initial cell volume =         219.038134 Angs**3

  Temperature of configuration =  0.000     K

  Pressure of configuration =         0.000 GPa

  Fractional coordinates of asymmetric unit :

   No.  Atomic       x           y          z         Charge      Occupancy
        Label      (Frac)      (Frac)     (Frac)        (e)         (Frac)
      1 Na    c    0.000000    0.000000    0.000000     0.98800    1.000000
      2 Na    c    0.000000 *  0.500000 *  0.500000 *   0.98800    1.000000
      3 Na    c    0.500000 *  0.000000 *  0.500000 *   0.98800    1.000000
      4 Na    c    0.500000 *  0.500000 *  0.000000 *   0.98800    1.000000
      5 Br    c    0.000000 *  0.000000 *  0.500000 *  -0.98800    1.000000
      6 Br    c    0.000000 *  0.500000 *  0.000000 *  -0.98800    1.000000
      7 Br    c    0.500000 *  0.000000 *  0.000000 *  -0.98800    1.000000
      8 Br    c    0.500000 *  0.500000 *  0.500000 *  -0.98800    1.000000

*  General input information                                                   *

  Species output for all configurations :

  Species    Type    Atomic    Atomic    Charge       Radii (Angs)     Library
                     Number     Mass       (e)     Cova   Ionic  VDW   Symbol
    Na       Core       11      22.99   0.988000   0.970  0.000  2.300
    Br       Core       35      79.90  -0.988000   1.210  0.000  1.800

  Lattice summation method               =    Ewald          (3-D)
                                         =    Parry          (2-D)
                                         =    Saunders et al (1-D)
  Accuracy factor for lattice sums       =   12.000

  Time limit = Infinity

  Maximum range for interatomic potentials =    100000.000000 Angstroms

  General interatomic potentials :

Atom  Types   Potential         A         B         C         D     Cutoffs(Ang)
  1     2                                                            Min    Max
Na   c Na   c Buckingham    0.790E+04 0.171      0.00      0.00     0.000 12.000
Na   c Br   c Buckingham    0.259E+04 0.301      42.1      0.00     0.000 12.000
Br   c Br   c Buckingham    0.295E+04 0.316      0.00      0.00     0.000 12.000

*  Output for configuration   1                                                *

  Components of energy :

  Interatomic potentials     =           1.45540695 eV
  Monopole - monopole (real) =         -10.49672813 eV
  Monopole - monopole (recip)=         -22.10338262 eV
  Monopole - monopole (total)=         -32.60011075 eV
  Total lattice energy       =         -31.14470379 eV
  Total lattice energy       =           -3004.9878 kJ/(mole unit cells)

  Number of variables =       27

  Maximum number of calculations  =          1000
  Maximum Hessian update interval =            10
  Maximum step size               =   1.000000000
  Maximum parameter tolerance     =   0.000010000
  Maximum function  tolerance     =   0.000010000
  Maximum gradient  tolerance     =   0.001000000
  Maximum gradient  component     =   0.010000000

  Symmetry not applied to optimisation

  Cell parameters to be optimised using strains

  Newton-Raphson optimiser to be used

  BFGS hessian update to be used

  Start of bulk optimisation :

  ** Hessian calculated **

  **** Optimisation achieved ****

  Final energy =     -31.46189293 eV
  Final Gnorm  =       0.00000049

  Components of energy :

  Interatomic potentials     =           2.79472168 eV
  Monopole - monopole (real) =         -11.03009659 eV
  Monopole - monopole (recip)=         -23.22651802 eV
  Monopole - monopole (total)=         -34.25661461 eV
  Total lattice energy       =         -31.46189293 eV
  Total lattice energy       =           -3035.5917 kJ/(mole unit cells)

  Final fractional coordinates of atoms :

   No.  Atomic        x           y          z          Radius
        Label       (Frac)      (Frac)     (Frac)       (Angs)
     1  Na    c     0.000000    0.000000    0.000000    0.000000
     2  Na    c     0.000000    0.500000    0.500000    0.000000
     3  Na    c     0.500000    0.000000    0.500000    0.000000
     4  Na    c     0.500000    0.500000    0.000000    0.000000
     5  Br    c     0.000000    0.000000    0.500000    0.000000
     6  Br    c     0.000000    0.500000    0.000000    0.000000
     7  Br    c     0.500000    0.000000    0.000000    0.000000
     8  Br    c     0.500000    0.500000    0.500000    0.000000

  Final Cartesian lattice vectors (Angstroms) :

        5.736512    0.000000    0.000000
        0.000000    5.736512    0.000000
        0.000000    0.000000    5.736512

  Final cell parameters and derivatives :

       a            5.736512 Angstrom     dE/de1(xx)    -0.000008 eV/strain
       b            5.736512 Angstrom     dE/de2(yy)    -0.000008 eV/strain
       c            5.736512 Angstrom     dE/de3(zz)    -0.000008 eV/strain
       alpha       90.000000 Degrees      dE/de4(yz)    -0.000000 eV/strain
       beta        90.000000 Degrees      dE/de5(xz)    -0.000000 eV/strain
       gamma       90.000000 Degrees      dE/de6(xy)    -0.000000 eV/strain

  Primitive cell volume =           188.774632 Angs**3

  Density of cell =      3.620308 g/cm**3

  Non-primitive cell volume =           188.774632 Angs**3

  Final internal derivatives :

   No.  Atomic          a             b             c           Radius
        Label          (eV)          (eV)          (eV)        (eV/Angs)
      1 Na    c       0.000000      0.000000      0.000000      0.000000
      2 Na    c      -0.000000      0.000000      0.000000      0.000000
      3 Na    c       0.000000     -0.000000      0.000000      0.000000
      4 Na    c       0.000000      0.000000     -0.000000      0.000000
      5 Br    c      -0.000000      0.000000      0.000000      0.000000
      6 Br    c      -0.000000     -0.000000      0.000000      0.000000
      7 Br    c       0.000000      0.000000      0.000000      0.000000
      8 Br    c       0.000000     -0.000000     -0.000000      0.000000
  Maximum abs         0.000000      0.000000      0.000000      0.000000

  Born effective charge tensors :

  Atom             x           y             z
   1 Na    x       0.9880      0.0000      0.0000
           y       0.0000      0.9880      0.0000
           z       0.0000      0.0000      0.9880
   2 Na    x       0.9880      0.0000      0.0000
           y       0.0000      0.9880      0.0000
           z       0.0000      0.0000      0.9880
   3 Na    x       0.9880      0.0000      0.0000
           y       0.0000      0.9880      0.0000
           z       0.0000      0.0000      0.9880
   4 Na    x       0.9880      0.0000      0.0000
           y       0.0000      0.9880      0.0000
           z       0.0000      0.0000      0.9880
   5 Br    x      -0.9880      0.0000      0.0000
           y       0.0000     -0.9880      0.0000
           z       0.0000      0.0000     -0.9880
   6 Br    x      -0.9880      0.0000      0.0000
           y       0.0000     -0.9880      0.0000
           z       0.0000      0.0000     -0.9880
   7 Br    x      -0.9880      0.0000      0.0000
           y       0.0000     -0.9880      0.0000
           z       0.0000      0.0000     -0.9880
   8 Br    x      -0.9880      0.0000      0.0000
           y       0.0000     -0.9880      0.0000
           z       0.0000      0.0000     -0.9880

  Elastic Constant Matrix: (Units=GPa)

  Indices      1         2         3         4         5         6
       1     56.7804   13.5313   13.5313    0.0000   -0.0000    0.0000
       2     13.5313   56.7804   13.5313   -0.0000   -0.0000    0.0000
       3     13.5313   13.5313   56.7804   -0.0000   -0.0000    0.0000
       4      0.0000   -0.0000   -0.0000   13.5313   -0.0000   -0.0000
       5     -0.0000   -0.0000   -0.0000   -0.0000   13.5313    0.0000
       6      0.0000    0.0000    0.0000   -0.0000    0.0000   13.5313

  Elastic Compliance Matrix: (Units=1/GPa)

  Indices      1         2         3         4         5         6
       1    0.019390 -0.003732 -0.003732 -0.000000 -0.000000 -0.000000
       2   -0.003732  0.019390 -0.003732  0.000000  0.000000 -0.000000
       3   -0.003732 -0.003732  0.019390  0.000000  0.000000 -0.000000
       4   -0.000000  0.000000  0.000000  0.073903  0.000000  0.000000
       5   -0.000000  0.000000  0.000000  0.000000  0.073903 -0.000000
       6   -0.000000 -0.000000 -0.000000  0.000000 -0.000000  0.073903

  Mechanical properties :

  Convention :                    Reuss         Voigt         Hill
  Bulk  Modulus (GPa)     =      27.94767      27.94767      27.94767
  Shear Modulus (GPa)     =      15.91364      16.76860      16.34112
  Velocity S-wave (km/s)  =       2.09658       2.15217       2.12456
  Velocity P-wave (km/s)  =       3.68518       3.72766       3.70648
  Compressibility (1/GPa) =    0.03578116
  Stress axis :                     x             y             z
  Youngs Moduli (GPa)     =      51.57232      51.57232      51.57232
  Poissons Ratio (x)      =                     0.19245       0.19245
  Poissons Ratio (y)      =       0.19245                     0.19245
  Poissons Ratio (z)      =       0.19245       0.19245

  Piezoelectric Strain Matrix: (Units=C/m**2)

  Indices      1         2         3         4         5         6
       x     0.00000  -0.00000  -0.00000   0.00000   0.00000   0.00000
       y    -0.00000  -0.00000  -0.00000   0.00000   0.00000   0.00000
       z     0.00000   0.00000  -0.00000   0.00000  -0.00000   0.00000

  Piezoelectric Stress Matrix: (Units=10**-11 C/N)

  Indices      1         2         3         4         5         6
       x     0.00000  -0.00000  -0.00000   0.00000   0.00000   0.00000
       y    -0.00000   0.00000  -0.00000   0.00000   0.00000   0.00000
       z     0.00000   0.00000  -0.00000   0.00000  -0.00000   0.00000

  Static dielectric constant tensor :

              x         y         z
       x     3.47395   0.00000  -0.00000
       y     0.00000   3.47395   0.00000
       z    -0.00000   0.00000   3.47395

  Static refractive indices :

    1 =    1.86385      2 =    1.86385      3 =    1.86385

  Time to end of optimisation =       0.0260 seconds

  Timing analysis for GULP :

  Task / Subroutine                                          Time (Seconds)
  Calculation of reciprocal space energy and derivatives          0.0021
  Calculation of real space energy and derivatives                0.0123
  Calculation of matrix inversion                                 0.0002

  Job Finished at 13:00.21 27th February   2017