  Job Started  at 17:45.04 28th February   2017

  Number of CPUs =     1

  Total number of configurations input =   1

*  Input for Configuration =   1                                               *

  Formula = Li4F4

  Number of irreducible atoms/shells =       8

  Total number atoms/shells =       8

  Dimensionality = 3               :  Bulk

  Cartesian lattice vectors (Angstroms) :

        4.083000    0.000000    0.000000
        0.000000    4.083000    0.000000
        0.000000    0.000000    4.083000

  Cell parameters (Angstroms/Degrees):

  a =       4.0830    alpha =  90.0000
  b =       4.0830    beta  =  90.0000
  c =       4.0830    gamma =  90.0000

  Initial cell volume =          68.067240 Angs**3

  Temperature of configuration =  0.000     K

  Pressure of configuration =         0.000 GPa

  Fractional coordinates of asymmetric unit :

   No.  Atomic       x           y          z         Charge      Occupancy
        Label      (Frac)      (Frac)     (Frac)        (e)         (Frac)
      1 Li    c    0.000000    0.000000    0.000000     0.98100    1.000000
      2 Li    c    0.000000 *  0.500000 *  0.500000 *   0.98100    1.000000
      3 Li    c    0.500000 *  0.000000 *  0.500000 *   0.98100    1.000000
      4 Li    c    0.500000 *  0.500000 *  0.000000 *   0.98100    1.000000
      5 F     c    0.000000 *  0.000000 *  0.500000 *  -0.98100    1.000000
      6 F     c    0.000000 *  0.500000 *  0.000000 *  -0.98100    1.000000
      7 F     c    0.500000 *  0.000000 *  0.000000 *  -0.98100    1.000000
      8 F     c    0.500000 *  0.500000 *  0.500000 *  -0.98100    1.000000

*  General input information                                                   *

  Species output for all configurations :

  Species    Type    Atomic    Atomic    Charge       Radii (Angs)     Library
                     Number     Mass       (e)     Cova   Ionic  VDW   Symbol
    Li       Core        3       6.94   0.981000   0.680  0.000  1.800
    F        Core        9      19.00  -0.981000   0.710  0.000  1.300

  Lattice summation method               =    Ewald          (3-D)
                                         =    Parry          (2-D)
                                         =    Saunders et al (1-D)
  Accuracy factor for lattice sums       =   12.000

  Time limit = Infinity

  Maximum range for interatomic potentials =    100000.000000 Angstroms

  General interatomic potentials :

Atom  Types   Potential         A         B         C         D     Cutoffs(Ang)
  1     2                                                            Min    Max
Li   c Li   c Buckingham    0.115E+04 0.136      0.00      0.00     0.000 12.000
Li   c F    c Buckingham     486.     0.261      12.7      0.00     0.000 12.000
F    c F    c Buckingham    0.113E+04 0.275      0.00      0.00     0.000 12.000

*  Output for configuration   1                                                *

  Components of energy :

  Interatomic potentials     =           0.88652191 eV
  Monopole - monopole (real) =         -15.27819112 eV
  Monopole - monopole (recip)=         -32.17190153 eV
  Monopole - monopole (total)=         -47.45009265 eV
  Total lattice energy       =         -46.56357074 eV
  Total lattice energy       =           -4492.6728 kJ/(mole unit cells)

  Number of variables =       27

  Maximum number of calculations  =          1000
  Maximum Hessian update interval =            10
  Maximum step size               =   1.000000000
  Maximum parameter tolerance     =   0.000010000
  Maximum function  tolerance     =   0.000010000
  Maximum gradient  tolerance     =   0.001000000
  Maximum gradient  component     =   0.010000000

  Symmetry not applied to optimisation

  Cell parameters to be optimised using strains

  Newton-Raphson optimiser to be used

  BFGS hessian update to be used

  Start of bulk optimisation :

  ** Hessian calculated **

  **** Optimisation achieved ****

  Final energy =     -49.03631575 eV
  Final Gnorm  =       0.00002658

  Components of energy :

  Interatomic potentials     =           5.64097207 eV
  Monopole - monopole (real) =         -17.60523545 eV
  Monopole - monopole (recip)=         -37.07205237 eV
  Monopole - monopole (total)=         -54.67728782 eV
  Total lattice energy       =         -49.03631575 eV
  Total lattice energy       =           -4731.2549 kJ/(mole unit cells)

  Final fractional coordinates of atoms :

   No.  Atomic        x           y          z          Radius
        Label       (Frac)      (Frac)     (Frac)       (Angs)
     1  Li    c     0.000000    0.000000    0.000000    0.000000
     2  Li    c     0.000000    0.500000    0.500000    0.000000
     3  Li    c     0.500000    0.000000    0.500000    0.000000
     4  Li    c     0.500000    0.500000    0.000000    0.000000
     5  F     c     0.000000    0.000000    0.500000    0.000000
     6  F     c     0.000000    0.500000    0.000000    0.000000
     7  F     c     0.500000    0.000000    0.000000    0.000000
     8  F     c     0.500000    0.500000    0.500000    0.000000

  Final Cartesian lattice vectors (Angstroms) :

        3.543313    0.000000    0.000000
        0.000000    3.543313    0.000000
        0.000000    0.000000    3.543313

  Final cell parameters and derivatives :

       a            3.543313 Angstrom     dE/de1(xx)    -0.000414 eV/strain
       b            3.543313 Angstrom     dE/de2(yy)    -0.000414 eV/strain
       c            3.543313 Angstrom     dE/de3(zz)    -0.000414 eV/strain
       alpha       90.000000 Degrees      dE/de4(yz)    -0.000000 eV/strain
       beta        90.000000 Degrees      dE/de5(xz)     0.000000 eV/strain
       gamma       90.000000 Degrees      dE/de6(xy)     0.000000 eV/strain

  Primitive cell volume =            44.486521 Angs**3

  Density of cell =      3.873089 g/cm**3

  Non-primitive cell volume =            44.486521 Angs**3

  Final internal derivatives :

   No.  Atomic          a             b             c           Radius
        Label          (eV)          (eV)          (eV)        (eV/Angs)
      1 Li    c       0.000000      0.000000      0.000000      0.000000
      2 Li    c       0.000000      0.000000     -0.000000      0.000000
      3 Li    c      -0.000000     -0.000000     -0.000000      0.000000
      4 Li    c      -0.000000     -0.000000     -0.000000      0.000000
      5 F     c      -0.000000     -0.000000     -0.000000      0.000000
      6 F     c      -0.000000      0.000000     -0.000000      0.000000
      7 F     c       0.000000     -0.000000     -0.000000      0.000000
      8 F     c       0.000000      0.000000      0.000000      0.000000
  Maximum abs         0.000000      0.000000      0.000000      0.000000

  Born effective charge tensors :

  Atom             x           y             z
   1 Li    x       0.9810      0.0000      0.0000
           y       0.0000      0.9810      0.0000
           z       0.0000      0.0000      0.9810
   2 Li    x       0.9810      0.0000      0.0000
           y       0.0000      0.9810      0.0000
           z       0.0000      0.0000      0.9810
   3 Li    x       0.9810      0.0000      0.0000
           y       0.0000      0.9810      0.0000
           z       0.0000      0.0000      0.9810
   4 Li    x       0.9810      0.0000      0.0000
           y       0.0000      0.9810      0.0000
           z       0.0000      0.0000      0.9810
   5 F     x      -0.9810      0.0000      0.0000
           y       0.0000     -0.9810      0.0000
           z       0.0000      0.0000     -0.9810
   6 F     x      -0.9810      0.0000      0.0000
           y       0.0000     -0.9810      0.0000
           z       0.0000      0.0000     -0.9810
   7 F     x      -0.9810      0.0000      0.0000
           y       0.0000     -0.9810      0.0000
           z       0.0000      0.0000     -0.9810
   8 F     x      -0.9810      0.0000      0.0000
           y       0.0000     -0.9810      0.0000
           z       0.0000      0.0000     -0.9810

  Elastic Constant Matrix: (Units=GPa)

  Indices      1         2         3         4         5         6
       1     76.0290  156.1037  156.1037   -0.0000   -0.0000    0.0000
       2    156.1037   76.0290  156.1037   -0.0000   -0.0000   -0.0000
       3    156.1037  156.1037   76.0290   -0.0000   -0.0000    0.0000
       4     -0.0000   -0.0000   -0.0000  156.1022    0.0000   -0.0000
       5     -0.0000   -0.0000   -0.0000    0.0000  156.1022   -0.0000
       6      0.0000   -0.0000    0.0000   -0.0000   -0.0000  156.1022

  Elastic Compliance Matrix: (Units=1/GPa)

  Indices      1         2         3         4         5         6
       1   -0.007467  0.005021  0.005021  0.000000  0.000000 -0.000000
       2    0.005021 -0.007467  0.005021  0.000000  0.000000 -0.000000
       3    0.005021  0.005021 -0.007467 -0.000000 -0.000000  0.000000
       4    0.000000  0.000000 -0.000000  0.006406 -0.000000  0.000000
       5    0.000000  0.000000 -0.000000 -0.000000  0.006406  0.000000
       6   -0.000000 -0.000000  0.000000  0.000000  0.000000  0.006406

  Mechanical properties :

  Convention :                    Reuss         Voigt         Hill
  Bulk  Modulus (GPa)     =     129.41213     129.41213     129.41213
  Shear Modulus (GPa)     =    -162.68006      77.64638     -42.51684
  Velocity S-wave (km/s)  =      -6.48095       4.47746      -3.31323
  Velocity P-wave (km/s)  =       4.75294       7.75522       4.33318
  Compressibility (1/GPa) =    0.00772725
  Stress axis :                     x             y             z
  Youngs Moduli (GPa)     =    -133.92303    -133.92303    -133.92303
  Poissons Ratio (x)      =                     0.67248       0.67248
  Poissons Ratio (y)      =       0.67248                     0.67248
  Poissons Ratio (z)      =       0.67248       0.67248

  Piezoelectric Strain Matrix: (Units=C/m**2)

  Indices      1         2         3         4         5         6
       x    -0.00000  -0.00000  -0.00000  -0.00000   0.00000   0.00000
       y     0.00000  -0.00000   0.00000   0.00000  -0.00000  -0.00000
       z     0.00000   0.00000   0.00000   0.00000  -0.00000  -0.00000

  Piezoelectric Stress Matrix: (Units=10**-11 C/N)

  Indices      1         2         3         4         5         6
       x     0.00000  -0.00000  -0.00000  -0.00000   0.00000   0.00000
       y    -0.00000   0.00000  -0.00000   0.00000  -0.00000  -0.00000
       z    -0.00000  -0.00000   0.00000   0.00000  -0.00000  -0.00000

  Static dielectric constant tensor :

              x         y         z
       x    -8.12248   0.00000   0.00000
       y     0.00000  -8.12248   0.00000
       z     0.00000   0.00000  -8.12248

  Static refractive indices :

    1 =   -2.85000      2 =   -2.85000      3 =   -2.85000

  Time to end of optimisation =       0.0251 seconds

  Timing analysis for GULP :

  Task / Subroutine                                          Time (Seconds)
  Calculation of reciprocal space energy and derivatives          0.0016
  Calculation of real space energy and derivatives                0.0195

  Job Finished at 17:45.04 28th February   2017