  Job Started  at 13:15.54 30th March      2017

  Number of CPUs =     1

  Total number of configurations input =   1

*  Input for Configuration =   1                                               *

  Formula = Li2F2

  Number of irreducible atoms/shells =       4

  Total number atoms/shells =       4

  Dimensionality = 3               :  Bulk

  Cartesian lattice vectors (Angstroms) :

        2.560000    0.000000    0.000000
        0.000000    2.560000    0.000000
        0.000000    0.000000    2.560000

  Cell parameters (Angstroms/Degrees):

  a =       2.5600    alpha =  90.0000
  b =       2.5600    beta  =  90.0000
  c =       2.5600    gamma =  90.0000

  Initial cell volume =          16.777216 Angs**3

  Temperature of configuration =  0.000     K

  Pressure of configuration =         0.000 GPa

  Fractional coordinates of asymmetric unit :

   No.  Atomic       x           y          z         Charge      Occupancy
        Label      (Frac)      (Frac)     (Frac)        (e)         (Frac)
      1 Li    c    0.000000    0.000000    0.000000     0.98100    1.000000
      2 Li    c    0.000000 *  0.500000 *  0.500000 *   0.98100    1.000000
      3 F     c    0.500000 *  0.000000 *  0.000000 *  -0.98100    1.000000
      4 F     c    0.500000 *  0.500000 *  0.500000 *  -0.98100    1.000000

*  General input information                                                   *

  Species output for all configurations :

  Species    Type    Atomic    Atomic    Charge       Radii (Angs)     Library
                     Number     Mass       (e)     Cova   Ionic  VDW   Symbol
    Li       Core        3       6.94   0.981000   0.680  0.000  1.800
    F        Core        9      19.00  -0.981000   0.710  0.000  1.300

  Lattice summation method               =    Ewald          (3-D)
                                         =    Parry          (2-D)
                                         =    Saunders et al (1-D)
  Accuracy factor for lattice sums       =   12.000

  Time limit = Infinity

  Maximum range for interatomic potentials =    100000.000000 Angstroms

  General interatomic potentials :

Atom  Types   Potential         A         B         C         D     Cutoffs(Ang)
  1     2                                                            Min    Max
Li   c Li   c Buckingham    0.115E+04 0.136      0.00      0.00     0.000 12.000
Li   c F    c Buckingham     486.     0.261      12.7      0.00     0.000 12.000
F    c F    c Buckingham    0.113E+04 0.275      0.00      0.00     0.000 12.000

*  Output for configuration   1                                                *

  Components of energy :

  Interatomic potentials     =           9.37400520 eV
  Monopole - monopole (real) =          -5.29782069 eV
  Monopole - monopole (recip)=         -22.00577532 eV
  Monopole - monopole (total)=         -27.30359601 eV
  Total lattice energy       =         -17.92959081 eV
  Total lattice energy       =           -1729.9314 kJ/(mole unit cells)

  Number of variables =       15

  Maximum number of calculations  =          1000
  Maximum Hessian update interval =            10
  Maximum step size               =   1.000000000
  Maximum parameter tolerance     =   0.000010000
  Maximum function  tolerance     =   0.000010000
  Maximum gradient  tolerance     =   0.001000000
  Maximum gradient  component     =   0.010000000

  Symmetry not applied to optimisation

  Cell parameters to be optimised using strains

  Newton-Raphson optimiser to be used

  BFGS hessian update to be used

  Start of bulk optimisation :

  ** Hessian calculated **
  ** Hessian calculated **

!! ERROR : Cell parameter has fallen below allowed limit

[...]

  ** Hessian calculated **

!! ERROR : Cell parameter has fallen below allowed limit

  **** Conditions for a minimum have not been satisfied. However ****
  **** no lower point can be found - treat results with caution  ****
  **** unless gradient norm is small (less than 0.1)             ****

  Final energy = -197715.07207245 eV
  Final Gnorm  =   79550.90566094

  Components of energy :

  Interatomic potentials     =     -197562.54292362 eV
  Monopole - monopole (real) =         -93.08462117 eV
  Monopole - monopole (recip)=         -59.44452767 eV
  Monopole - monopole (total)=        -152.52914883 eV
  Total lattice energy       =     -197715.07207245 eV
  Total lattice energy       =       -19076482.1033 kJ/(mole unit cells)

  Final fractional coordinates of atoms :

   No.  Atomic        x           y          z          Radius
        Label       (Frac)      (Frac)     (Frac)       (Angs)
     1  Li    c     0.000000    0.000000    0.000000    0.000000
     2  Li    c     0.000000    0.500000    0.500000    0.000000
     3  F     c     0.500000    0.000000    0.000000    0.000000
     4  F     c     0.500000    0.500000    0.500000    0.000000

  Final Cartesian lattice vectors (Angstroms) :

        0.503794    0.000000    0.000000
        0.000000    1.508649    0.000000
        0.000000    0.000000    1.508649

  Final cell parameters and derivatives :

       a            0.503794 Angstrom     dE/de1(xx) ************ eV/strain
       b            1.508649 Angstrom     dE/de2(yy)  -647.097120 eV/strain
       c            1.508649 Angstrom     dE/de3(zz)  -647.097120 eV/strain
       alpha       90.000000 Degrees      dE/de4(yz)    -0.000000 eV/strain
       beta        90.000000 Degrees      dE/de5(xz)    -0.000000 eV/strain
       gamma       90.000000 Degrees      dE/de6(xy)     0.000000 eV/strain

  Primitive cell volume =             1.146646 Angs**3

  Density of cell =     75.132276 g/cm**3

  Non-primitive cell volume =             1.146646 Angs**3

  Final internal derivatives :

   No.  Atomic          a             b             c           Radius
        Label          (eV)          (eV)          (eV)        (eV/Angs)
      1 Li    c       0.000000      0.000000      0.000000      0.000000
      2 Li    c      -0.000000     -0.000000     -0.000000      0.000000
      3 F     c       0.000000     -0.000000      0.000000      0.000000
      4 F     c       0.000000      0.000000     -0.000000      0.000000
  Maximum abs         0.000000      0.000000      0.000000      0.000000

  Born effective charge tensors :

  Atom             x           y             z
   1 Li    x       0.9810      0.0000      0.0000
           y       0.0000      0.9810      0.0000
           z       0.0000      0.0000      0.9810
   2 Li    x       0.9810      0.0000      0.0000
           y       0.0000      0.9810      0.0000
           z       0.0000      0.0000      0.9810
   3 F     x      -0.9810      0.0000      0.0000
           y       0.0000     -0.9810      0.0000
           z       0.0000      0.0000     -0.9810
   4 F     x      -0.9810      0.0000      0.0000
           y       0.0000     -0.9810      0.0000
           z       0.0000      0.0000     -0.9810

  Elastic Constant Matrix: (Units=GPa)

  Indices      1         2         3         4         5         6
       1  **********89879.345889879.3458    0.0000   -0.0000   -0.0000
       2  89879.345877839.641677725.2707   -0.0000   -0.0000    0.0000
       3  89879.345877725.270777839.6416   -0.0000   -0.0000    0.0000
       4      0.0000   -0.0000   -0.0000**********   -0.0000   -0.0000
       5     -0.0000   -0.0000   -0.0000   -0.0000**********   -0.0000
       6     -0.0000    0.0000    0.0000   -0.0000   -0.0000**********

  Elastic Compliance Matrix: (Units=1/GPa)

  Indices      1         2         3         4         5         6
       1   -0.000000  0.000000  0.000000 -0.000000  0.000000 -0.000000
       2    0.000000  0.004375 -0.004369 -0.000000  0.000000 -0.000000
       3    0.000000 -0.004369  0.004375  0.000000 -0.000000  0.000000
       4   -0.000000 -0.000000  0.000000 -0.000079 -0.000000 -0.000000
       5    0.000000  0.000000 -0.000000 -0.000000  0.000000  0.000000
       6   -0.000000 -0.000000  0.000000 -0.000000  0.000000  0.000000

  Mechanical properties :

  Convention :                    Reuss         Voigt         Hill
  Bulk  Modulus (GPa)     =   77782.60220 ************* *************
  Shear Modulus (GPa)     =     287.15026 ************* *************
  Velocity S-wave (km/s)  =       1.95498    -667.21946    -471.79338
  Velocity P-wave (km/s)  =      32.25479    1440.30330    1018.19282
  Compressibility (1/GPa) =    0.00001286
  Stress axis :                     x             y             z
  Youngs Moduli (GPa)     =       0.00000     228.57377     228.57377
  Poissons Ratio (x)      =                    -0.00000      -0.00000
  Poissons Ratio (y)      =      -0.00000                     0.99853
  Poissons Ratio (z)      =      -0.00000       0.99853

  Piezoelectric Strain Matrix: (Units=C/m**2)

  Indices      1         2         3         4         5         6
       x     0.00000  -0.00000  -0.00000   0.00000  -0.00000  -0.00000
       y     0.00000  -0.00000   0.00000  -0.00000  -0.00000   0.00000
       z     0.00000  -0.00000   0.00000   0.00000   0.00000  -0.00000

  Piezoelectric Stress Matrix: (Units=10**-11 C/N)

  Indices      1         2         3         4         5         6
       x    -0.00000  -0.00000   0.00000  -0.00000  -0.00000  -0.00000
       y     0.00000  -0.00000   0.00000   0.00000  -0.00000   0.00000
       z     0.00000  -0.00000   0.00000  -0.00000   0.00000  -0.00000

  Static dielectric constant tensor :

              x         y         z
       x     1.00000   0.00000   0.00000
       y     0.00000   1.00003  -0.00000
       z     0.00000  -0.00000   1.00003

  Static refractive indices :

    1 =    1.00000      2 =    1.00002      3 =    1.00002

  Time to end of optimisation =       0.3956 seconds

  Timing analysis for GULP :

  Task / Subroutine                                          Time (Seconds)
  Calculation of reciprocal space energy and derivatives          0.0023
  Calculation of real space energy and derivatives                0.3876

  Job Finished at 13:15.55 30th March      2017