  Job Started  at 12:55.19 27th February   2017

  Number of CPUs =     1

  Total number of configurations input =   1

*  Input for Configuration =   1                                               *

  Formula = K4F4

  Number of irreducible atoms/shells =       8

  Total number atoms/shells =       8

  Dimensionality = 3               :  Bulk

  Cartesian lattice vectors (Angstroms) :

        5.424000    0.000000    0.000000
        0.000000    5.424000    0.000000
        0.000000    0.000000    5.424000

  Cell parameters (Angstroms/Degrees):

  a =       5.4240    alpha =  90.0000
  b =       5.4240    beta  =  90.0000
  c =       5.4240    gamma =  90.0000

  Initial cell volume =         159.572865 Angs**3

  Temperature of configuration =  0.000     K

  Pressure of configuration =         0.000 GPa

  Fractional coordinates of asymmetric unit :

   No.  Atomic       x           y          z         Charge      Occupancy
        Label      (Frac)      (Frac)     (Frac)        (e)         (Frac)
      1 K     c    0.000000    0.000000    0.000000     0.96900    1.000000
      2 K     c    0.000000 *  0.500000 *  0.500000 *   0.96900    1.000000
      3 K     c    0.500000 *  0.000000 *  0.500000 *   0.96900    1.000000
      4 K     c    0.500000 *  0.500000 *  0.000000 *   0.96900    1.000000
      5 F     c    0.000000 *  0.000000 *  0.500000 *  -0.96900    1.000000
      6 F     c    0.000000 *  0.500000 *  0.000000 *  -0.96900    1.000000
      7 F     c    0.500000 *  0.000000 *  0.000000 *  -0.96900    1.000000
      8 F     c    0.500000 *  0.500000 *  0.500000 *  -0.96900    1.000000

*  General input information                                                   *

  Species output for all configurations :

  Species    Type    Atomic    Atomic    Charge       Radii (Angs)     Library
                     Number     Mass       (e)     Cova   Ionic  VDW   Symbol
    K        Core       19      39.10   0.969000   1.330  0.000  2.800
    F        Core        9      19.00  -0.969000   0.710  0.000  1.300

  Lattice summation method               =    Ewald          (3-D)
                                         =    Parry          (2-D)
                                         =    Saunders et al (1-D)
  Accuracy factor for lattice sums       =   12.000

  Time limit = Infinity

  Maximum range for interatomic potentials =    100000.000000 Angstroms

  General interatomic potentials :

Atom  Types   Potential         A         B         C         D     Cutoffs(Ang)
  1     2                                                            Min    Max
K    c K    c Buckingham    0.380E+04 0.260      0.00      0.00     0.000 12.000
F    c K    c Buckingham    0.243E+04 0.277      44.6      0.00     0.000 12.000
F    c F    c Buckingham    0.113E+04 0.275      0.00      0.00     0.000 12.000

*  Output for configuration   1                                                *

  Components of energy :

  Interatomic potentials     =           0.37742364 eV
  Monopole - monopole (real) =         -11.22124841 eV
  Monopole - monopole (recip)=         -23.62903411 eV
  Monopole - monopole (total)=         -34.85028252 eV
  Total lattice energy       =         -34.47285888 eV
  Total lattice energy       =           -3326.1039 kJ/(mole unit cells)

  Number of variables =       27

  Maximum number of calculations  =          1000
  Maximum Hessian update interval =            10
  Maximum step size               =   1.000000000
  Maximum parameter tolerance     =   0.000010000
  Maximum function  tolerance     =   0.000010000
  Maximum gradient  tolerance     =   0.001000000
  Maximum gradient  component     =   0.010000000

  Symmetry not applied to optimisation

  Cell parameters to be optimised using strains

  Newton-Raphson optimiser to be used

  BFGS hessian update to be used

  Start of bulk optimisation :

  ** Hessian calculated **

  **** Optimisation achieved ****

  Final energy =     -35.40369792 eV
  Final Gnorm  =       0.00000320

  Components of energy :

  Interatomic potentials     =           2.48052607 eV
  Monopole - monopole (real) =         -12.19813033 eV
  Monopole - monopole (recip)=         -25.68609366 eV
  Monopole - monopole (total)=         -37.88422400 eV
  Total lattice energy       =         -35.40369792 eV
  Total lattice energy       =           -3415.9157 kJ/(mole unit cells)

  Final fractional coordinates of atoms :

   No.  Atomic        x           y          z          Radius
        Label       (Frac)      (Frac)     (Frac)       (Angs)
     1  K     c     0.000000    0.000000    0.000000    0.000000
     2  K     c     0.000000    0.500000    0.500000    0.000000
     3  K     c     0.500000    0.000000    0.500000    0.000000
     4  K     c     0.500000    0.500000    0.000000    0.000000
     5  F     c     0.000000    0.000000    0.500000    0.000000
     6  F     c     0.000000    0.500000    0.000000    0.000000
     7  F     c     0.500000    0.000000    0.000000    0.000000
     8  F     c     0.500000    0.500000    0.500000    0.000000

  Final Cartesian lattice vectors (Angstroms) :

        4.989621    0.000000    0.000000
        0.000000    4.989621    0.000000
        0.000000    0.000000    4.989621

  Final cell parameters and derivatives :

       a            4.989621 Angstrom     dE/de1(xx)    -0.000050 eV/strain
       b            4.989621 Angstrom     dE/de2(yy)    -0.000050 eV/strain
       c            4.989621 Angstrom     dE/de3(zz)    -0.000050 eV/strain
       alpha       90.000000 Degrees      dE/de4(yz)     0.000000 eV/strain
       beta        90.000000 Degrees      dE/de5(xz)     0.000000 eV/strain
       gamma       90.000000 Degrees      dE/de6(xy)    -0.000000 eV/strain

  Primitive cell volume =           124.223215 Angs**3

  Density of cell =      3.106629 g/cm**3

  Non-primitive cell volume =           124.223215 Angs**3

  Final internal derivatives :

   No.  Atomic          a             b             c           Radius
        Label          (eV)          (eV)          (eV)        (eV/Angs)
      1 K     c       0.000000      0.000000      0.000000      0.000000
      2 K     c       0.000000      0.000000      0.000000      0.000000
      3 K     c      -0.000000      0.000000      0.000000      0.000000
      4 K     c      -0.000000     -0.000000      0.000000      0.000000
      5 F     c       0.000000      0.000000     -0.000000      0.000000
      6 F     c       0.000000     -0.000000      0.000000      0.000000
      7 F     c      -0.000000      0.000000      0.000000      0.000000
      8 F     c      -0.000000     -0.000000     -0.000000      0.000000
  Maximum abs         0.000000      0.000000      0.000000      0.000000

  Born effective charge tensors :

  Atom             x           y             z
   1 K     x       0.9690      0.0000      0.0000
           y       0.0000      0.9690      0.0000
           z       0.0000      0.0000      0.9690
   2 K     x       0.9690      0.0000      0.0000
           y       0.0000      0.9690      0.0000
           z       0.0000      0.0000      0.9690
   3 K     x       0.9690      0.0000      0.0000
           y       0.0000      0.9690      0.0000
           z       0.0000      0.0000      0.9690
   4 K     x       0.9690      0.0000      0.0000
           y       0.0000      0.9690      0.0000
           z       0.0000      0.0000      0.9690
   5 F     x      -0.9690      0.0000      0.0000
           y       0.0000     -0.9690      0.0000
           z       0.0000      0.0000     -0.9690
   6 F     x      -0.9690      0.0000      0.0000
           y       0.0000     -0.9690      0.0000
           z       0.0000      0.0000     -0.9690
   7 F     x      -0.9690      0.0000      0.0000
           y       0.0000     -0.9690      0.0000
           z       0.0000      0.0000     -0.9690
   8 F     x      -0.9690      0.0000      0.0000
           y       0.0000     -0.9690      0.0000
           z       0.0000      0.0000     -0.9690

  Elastic Constant Matrix: (Units=GPa)

  Indices      1         2         3         4         5         6
       1    101.4540   21.5908   21.5908   -0.0000   -0.0000   -0.0000
       2     21.5908  101.4540   21.5908   -0.0000   -0.0000   -0.0000
       3     21.5908   21.5908  101.4540    0.0000    0.0000    0.0000
       4     -0.0000   -0.0000    0.0000   21.5908    0.0000   -0.0000
       5     -0.0000   -0.0000    0.0000    0.0000   21.5908    0.0000
       6     -0.0000   -0.0000    0.0000   -0.0000    0.0000   21.5908

  Elastic Compliance Matrix: (Units=1/GPa)

  Indices      1         2         3         4         5         6
       1    0.010652 -0.001869 -0.001869  0.000000  0.000000  0.000000
       2   -0.001869  0.010652 -0.001869  0.000000  0.000000  0.000000
       3   -0.001869 -0.001869  0.010652 -0.000000 -0.000000 -0.000000
       4    0.000000  0.000000 -0.000000  0.046316 -0.000000  0.000000
       5    0.000000  0.000000 -0.000000 -0.000000  0.046316 -0.000000
       6    0.000000  0.000000 -0.000000  0.000000 -0.000000  0.046316

  Mechanical properties :

  Convention :                    Reuss         Voigt         Hill
  Bulk  Modulus (GPa)     =      48.21190      48.21190      48.21190
  Shear Modulus (GPa)     =      26.45028      28.92710      27.68869
  Velocity S-wave (km/s)  =       2.91790       3.05146       2.98543
  Velocity P-wave (km/s)  =       5.18375       5.28529       5.23476
  Compressibility (1/GPa) =    0.02074177
  Stress axis :                     x             y             z
  Youngs Moduli (GPa)     =      93.87691      93.87691      93.87691
  Poissons Ratio (x)      =                     0.17547       0.17547
  Poissons Ratio (y)      =       0.17547                     0.17547
  Poissons Ratio (z)      =       0.17547       0.17547

  Piezoelectric Strain Matrix: (Units=C/m**2)

  Indices      1         2         3         4         5         6
       x    -0.00000  -0.00000  -0.00000   0.00000  -0.00000  -0.00000
       y     0.00000  -0.00000   0.00000  -0.00000   0.00000  -0.00000
       z     0.00000   0.00000  -0.00000  -0.00000  -0.00000   0.00000

  Piezoelectric Stress Matrix: (Units=10**-11 C/N)

  Indices      1         2         3         4         5         6
       x    -0.00000  -0.00000   0.00000   0.00000  -0.00000  -0.00000
       y     0.00000  -0.00000   0.00000  -0.00000   0.00000  -0.00000
       z     0.00000   0.00000  -0.00000  -0.00000  -0.00000   0.00000

  Static dielectric constant tensor :

              x         y         z
       x     3.28325  -0.00000  -0.00000
       y    -0.00000   3.28325   0.00000
       z    -0.00000   0.00000   3.28325

  Static refractive indices :

    1 =    1.81197      2 =    1.81197      3 =    1.81197

  Time to end of optimisation =       0.0236 seconds

  Timing analysis for GULP :

  Task / Subroutine                                          Time (Seconds)
  Calculation of reciprocal space energy and derivatives          0.0018
  Calculation of real space energy and derivatives                0.0111
  Calculation of matrix inversion                                 0.0002

  Job Finished at 12:55.19 27th February   2017