  Job Started  at 14:40.55 23rd February   2017

  Number of CPUs =     1

  Total number of configurations input =   1

*  Input for Configuration =   1                                               *

  Formula = Li4I4

  Number of irreducible atoms/shells =       8

  Total number atoms/shells =       8

  Dimensionality = 3               :  Bulk

  Cartesian lattice vectors (Angstroms) :

        6.026000    0.000000    0.000000
        0.000000    6.026000    0.000000
        0.000000    0.000000    6.026000

  Cell parameters (Angstroms/Degrees):

  a =       6.0260    alpha =  90.0000
  b =       6.0260    beta  =  90.0000
  c =       6.0260    gamma =  90.0000

  Initial cell volume =         218.820186 Angs**3

  Temperature of configuration =  0.000     K

  Pressure of configuration =         0.000 GPa

  Fractional coordinates of asymmetric unit :

   No.  Atomic       x           y          z         Charge      Occupancy
        Label      (Frac)      (Frac)     (Frac)        (e)         (Frac)
      1 Li    c    0.000000    0.000000    0.000000     0.97900    1.000000
      2 Li    c    0.000000    0.500000    0.500000     0.97900    1.000000
      3 Li    c    0.500000    0.000000    0.500000     0.97900    1.000000
      4 Li    c    0.500000    0.500000    0.000000     0.97900    1.000000
      5 I     c    0.000000    0.000000    0.500000    -0.97900    1.000000
      6 I     c    0.000000    0.500000    0.000000    -0.97900    1.000000
      7 I     c    0.500000    0.000000    0.000000    -0.97900    1.000000
      8 I     c    0.500000    0.500000    0.500000    -0.97900    1.000000

*  General input information                                                   *

  Species output for all configurations :

  Species    Type    Atomic    Atomic    Charge       Radii (Angs)     Library
                     Number     Mass       (e)     Cova   Ionic  VDW   Symbol
    Li       Core        3       6.94   0.979000   0.680  0.000  1.800
    I        Core       53     126.91  -0.979000   1.400  0.000  2.050

  Lattice summation method               =    Ewald          (3-D)
                                         =    Parry          (2-D)
                                         =    Saunders et al (1-D)
  Accuracy factor for lattice sums       =   12.000

  Time limit = Infinity

  Maximum range for interatomic potentials =    100000.000000 Angstroms

  General interatomic potentials :

Atom  Types   Potential         A         B         C         D     Cutoffs(Ang)
  1     2                                                            Min    Max
Li   c Li   c Buckingham    0.115E+04 0.136      0.00      0.00     0.000 12.000
Li   c I    c Buckingham    0.889E+04 0.262      0.00      0.00     0.000 12.000
I    c I    c Buckingham    0.550E+04 0.307      0.00      0.00     0.000 12.000

*  Output for configuration   1                                                *

  Components of energy :

  Interatomic potentials     =           2.25665148 eV
  Monopole - monopole (real) =         -10.30978384 eV
  Monopole - monopole (recip)=         -21.70972650 eV
  Monopole - monopole (total)=         -32.01951034 eV
  Total lattice energy       =         -29.76285886 eV
  Total lattice energy       =           -2871.6609 kJ/(mole unit cells)

  Born effective charge tensors :

  Atom             x           y             z
   1 Li    x       0.9790      0.0000      0.0000
           y       0.0000      0.9790      0.0000
           z       0.0000      0.0000      0.9790
   2 Li    x       0.9790      0.0000      0.0000
           y       0.0000      0.9790      0.0000
           z       0.0000      0.0000      0.9790
   3 Li    x       0.9790      0.0000      0.0000
           y       0.0000      0.9790      0.0000
           z       0.0000      0.0000      0.9790
   4 Li    x       0.9790      0.0000      0.0000
           y       0.0000      0.9790      0.0000
           z       0.0000      0.0000      0.9790
   5 I     x      -0.9790      0.0000      0.0000
           y       0.0000     -0.9790      0.0000
           z       0.0000      0.0000     -0.9790
   6 I     x      -0.9790      0.0000      0.0000
           y       0.0000     -0.9790      0.0000
           z       0.0000      0.0000     -0.9790
   7 I     x      -0.9790      0.0000      0.0000
           y       0.0000     -0.9790      0.0000
           z       0.0000      0.0000     -0.9790
   8 I     x      -0.9790      0.0000      0.0000
           y       0.0000     -0.9790      0.0000
           z       0.0000      0.0000     -0.9790

  Elastic Constant Matrix: (Units=GPa)

  Indices      1         2         3         4         5         6
       1     38.8531   10.8888   10.8888    0.0000   -0.0000   -0.0000
       2     10.8888   38.8531   10.8888   -0.0000   -0.0000   -0.0000
       3     10.8888   10.8888   38.8531    0.0000    0.0000   -0.0000
       4      0.0000   -0.0000    0.0000   12.2901   -0.0000   -0.0000
       5     -0.0000   -0.0000    0.0000   -0.0000   12.2901    0.0000
       6     -0.0000   -0.0000   -0.0000   -0.0000    0.0000   12.2901

  Elastic Compliance Matrix: (Units=1/GPa)

  Indices      1         2         3         4         5         6
       1    0.029338 -0.006422 -0.006422 -0.000000  0.000000  0.000000
       2   -0.006422  0.029338 -0.006422  0.000000  0.000000 -0.000000
       3   -0.006422 -0.006422  0.029338 -0.000000 -0.000000  0.000000
       4   -0.000000  0.000000 -0.000000  0.081367  0.000000  0.000000
       5    0.000000  0.000000 -0.000000  0.000000  0.081367 -0.000000
       6    0.000000 -0.000000  0.000000  0.000000 -0.000000  0.081367

  Mechanical properties :

  Convention :                    Reuss         Voigt         Hill
  Bulk  Modulus (GPa)     =      20.21027      20.21027      20.21027
  Shear Modulus (GPa)     =      12.91525      12.96690      12.94107
  Velocity S-wave (km/s)  =       1.78290       1.78647       1.78469
  Velocity P-wave (km/s)  =       3.03522       3.03801       3.03661
  Compressibility (1/GPa) =    0.04947980
  Stress axis :                     x             y             z
  Youngs Moduli (GPa)     =      34.08586      34.08586      34.08586
  Poissons Ratio (x)      =                     0.21891       0.21891
  Poissons Ratio (y)      =       0.21891                     0.21891
  Poissons Ratio (z)      =       0.21891       0.21891

  Piezoelectric Strain Matrix: (Units=C/m**2)

  Indices      1         2         3         4         5         6
       x    -0.00000   0.00000   0.00000  -0.00000  -0.00000   0.00000
       y     0.00000   0.00000   0.00000  -0.00000  -0.00000  -0.00000
       z    -0.00000  -0.00000   0.00000   0.00000  -0.00000  -0.00000

  Piezoelectric Stress Matrix: (Units=10**-11 C/N)

  Indices      1         2         3         4         5         6
       x    -0.00000   0.00000   0.00000  -0.00000  -0.00000   0.00000
       y     0.00000   0.00000   0.00000  -0.00000  -0.00000  -0.00000
       z    -0.00000  -0.00000   0.00000   0.00000  -0.00000  -0.00000

  Static dielectric constant tensor :

              x         y         z
       x     3.90954   0.00000   0.00000
       y     0.00000   3.90954  -0.00000
       z     0.00000  -0.00000   3.90954

  Static refractive indices :

    1 =    1.97725      2 =    1.97725      3 =    1.97725

  Time to end of properties =       0.0047 seconds

  Timing analysis for GULP :

  Task / Subroutine                                          Time (Seconds)
  Calculation of reciprocal space energy and derivatives          0.0002
  Calculation of real space energy and derivatives                0.0011

  Job Finished at 14:40.55 23rd February   2017