  Job Started  at 14:47.48 23rd February   2017

  Number of CPUs =     1

  Total number of configurations input =   1

*  Input for Configuration =   1                                               *

  Formula = Na4F4

  Number of irreducible atoms/shells =       8

  Total number atoms/shells =       8

  Dimensionality = 3               :  Bulk

  Cartesian lattice vectors (Angstroms) :

        4.696000    0.000000    0.000000
        0.000000    4.696000    0.000000
        0.000000    0.000000    4.696000

  Cell parameters (Angstroms/Degrees):

  a =       4.6960    alpha =  90.0000
  b =       4.6960    beta  =  90.0000
  c =       4.6960    gamma =  90.0000

  Initial cell volume =         103.558146 Angs**3

  Temperature of configuration =  0.000     K

  Pressure of configuration =         0.000 GPa

  Fractional coordinates of asymmetric unit :

   No.  Atomic       x           y          z         Charge      Occupancy
        Label      (Frac)      (Frac)     (Frac)        (e)         (Frac)
      1 Na    c    0.000000    0.000000    0.000000     0.98100    1.000000
      2 Na    c    0.000000 *  0.500000 *  0.500000 *   0.98100    1.000000
      3 Na    c    0.500000 *  0.000000 *  0.500000 *   0.98100    1.000000
      4 Na    c    0.500000 *  0.500000 *  0.000000 *   0.98100    1.000000
      5 F     c    0.000000 *  0.000000 *  0.500000 *  -0.98100    1.000000
      6 F     c    0.000000 *  0.500000 *  0.000000 *  -0.98100    1.000000
      7 F     c    0.500000 *  0.000000 *  0.000000 *  -0.98100    1.000000
      8 F     c    0.500000 *  0.500000 *  0.500000 *  -0.98100    1.000000

*  General input information                                                   *

  Species output for all configurations :

  Species    Type    Atomic    Atomic    Charge       Radii (Angs)     Library
                     Number     Mass       (e)     Cova   Ionic  VDW   Symbol
    Na       Core       11      22.99   0.981000   0.970  0.000  2.300
    F        Core        9      19.00  -0.981000   0.710  0.000  1.300

  Lattice summation method               =    Ewald          (3-D)
                                         =    Parry          (2-D)
                                         =    Saunders et al (1-D)
  Accuracy factor for lattice sums       =   12.000

  Time limit = Infinity

  Maximum range for interatomic potentials =    100000.000000 Angstroms

  General interatomic potentials :

Atom  Types   Potential         A         B         C         D     Cutoffs(Ang)
  1     2                                                            Min    Max
Na   c Na   c Buckingham    0.790E+04 0.171      0.00      0.00     0.000 12.000
F    c Na   c Buckingham    0.113E+04 0.275      0.00      0.00     0.000 12.000
F    c F    c Buckingham    0.159E+04 0.256      11.7      0.00     0.000 12.000

*  Output for configuration   1                                                *

  Components of energy :

  Interatomic potentials     =           5.20222901 eV
  Monopole - monopole (real) =         -13.28382758 eV
  Monopole - monopole (recip)=         -27.97229003 eV
  Monopole - monopole (total)=         -41.25611761 eV
  Total lattice energy       =         -36.05388860 eV
  Total lattice energy       =           -3478.6491 kJ/(mole unit cells)

  Number of variables =       27

  Maximum number of calculations  =          1000
  Maximum Hessian update interval =            10
  Maximum step size               =   1.000000000
  Maximum parameter tolerance     =   0.000010000
  Maximum function  tolerance     =   0.000010000
  Maximum gradient  tolerance     =   0.001000000
  Maximum gradient  component     =   0.010000000

  Symmetry not applied to optimisation

  Cell parameters to be optimised using strains

  Newton-Raphson optimiser to be used

  BFGS hessian update to be used

  Start of bulk optimisation :

  ** Hessian calculated **

  **** Optimisation achieved ****

  Final energy =     -36.08331379 eV
  Final Gnorm  =       0.00000011

  Components of energy :

  Interatomic potentials     =           4.58242458 eV
  Monopole - monopole (real) =         -13.09373466 eV
  Monopole - monopole (recip)=         -27.57200371 eV
  Monopole - monopole (total)=         -40.66573837 eV
  Total lattice energy       =         -36.08331379 eV
  Total lattice energy       =           -3481.4882 kJ/(mole unit cells)

  Final fractional coordinates of atoms :

   No.  Atomic        x           y          z          Radius
        Label       (Frac)      (Frac)     (Frac)       (Angs)
     1  Na    c     0.000000    0.000000    0.000000    0.000000
     2  Na    c     0.000000    0.500000    0.500000    0.000000
     3  Na    c     0.500000    0.000000    0.500000    0.000000
     4  Na    c     0.500000    0.500000    0.000000    0.000000
     5  F     c     0.000000    0.000000    0.500000    0.000000
     6  F     c     0.000000    0.500000    0.000000    0.000000
     7  F     c     0.500000    0.000000    0.000000    0.000000
     8  F     c     0.500000    0.500000    0.500000    0.000000

  Final Cartesian lattice vectors (Angstroms) :

        4.764176    0.000000    0.000000
        0.000000    4.764176    0.000000
        0.000000    0.000000    4.764176

  Final cell parameters and derivatives :

       a            4.764176 Angstrom     dE/de1(xx)     0.000002 eV/strain
       b            4.764176 Angstrom     dE/de2(yy)     0.000002 eV/strain
       c            4.764176 Angstrom     dE/de3(zz)     0.000002 eV/strain
       alpha       90.000000 Degrees      dE/de4(yz)    -0.000000 eV/strain
       beta        90.000000 Degrees      dE/de5(xz)    -0.000000 eV/strain
       gamma       90.000000 Degrees      dE/de6(xy)    -0.000000 eV/strain

  Primitive cell volume =           108.134269 Angs**3

  Density of cell =      2.579280 g/cm**3

  Non-primitive cell volume =           108.134269 Angs**3

  Final internal derivatives :

   No.  Atomic          a             b             c           Radius
        Label          (eV)          (eV)          (eV)        (eV/Angs)
      1 Na    c       0.000000      0.000000      0.000000      0.000000
      2 Na    c       0.000000      0.000000     -0.000000      0.000000
      3 Na    c      -0.000000     -0.000000     -0.000000      0.000000
      4 Na    c      -0.000000     -0.000000     -0.000000      0.000000
      5 F     c       0.000000      0.000000      0.000000      0.000000
      6 F     c       0.000000     -0.000000     -0.000000      0.000000
      7 F     c      -0.000000      0.000000     -0.000000      0.000000
      8 F     c      -0.000000     -0.000000      0.000000      0.000000
  Maximum abs         0.000000      0.000000      0.000000      0.000000

  Born effective charge tensors :

  Atom             x           y             z
   1 Na    x       0.9810      0.0000      0.0000
           y       0.0000      0.9810      0.0000
           z       0.0000      0.0000      0.9810
   2 Na    x       0.9810      0.0000      0.0000
           y       0.0000      0.9810      0.0000
           z       0.0000      0.0000      0.9810
   3 Na    x       0.9810      0.0000      0.0000
           y       0.0000      0.9810      0.0000
           z       0.0000      0.0000      0.9810
   4 Na    x       0.9810      0.0000      0.0000
           y       0.0000      0.9810      0.0000
           z       0.0000      0.0000      0.9810
   5 F     x      -0.9810      0.0000      0.0000
           y       0.0000     -0.9810      0.0000
           z       0.0000      0.0000     -0.9810
   6 F     x      -0.9810      0.0000      0.0000
           y       0.0000     -0.9810      0.0000
           z       0.0000      0.0000     -0.9810
   7 F     x      -0.9810      0.0000      0.0000
           y       0.0000     -0.9810      0.0000
           z       0.0000      0.0000     -0.9810
   8 F     x      -0.9810      0.0000      0.0000
           y       0.0000     -0.9810      0.0000
           z       0.0000      0.0000     -0.9810

  Elastic Constant Matrix: (Units=GPa)

  Indices      1         2         3         4         5         6
       1     87.7970   24.8499   24.8499   -0.0000   -0.0000    0.0000
       2     24.8499   87.7970   24.8499   -0.0000    0.0000    0.0000
       3     24.8499   24.8499   87.7970   -0.0000    0.0000    0.0000
       4     -0.0000   -0.0000   -0.0000   24.8499    0.0000    0.0000
       5     -0.0000    0.0000    0.0000    0.0000   24.8499   -0.0000
       6      0.0000    0.0000    0.0000    0.0000   -0.0000   24.8499

  Elastic Compliance Matrix: (Units=1/GPa)

  Indices      1         2         3         4         5         6
       1    0.013015 -0.002871 -0.002871  0.000000  0.000000 -0.000000
       2   -0.002871  0.013015 -0.002871  0.000000 -0.000000 -0.000000
       3   -0.002871 -0.002871  0.013015 -0.000000 -0.000000  0.000000
       4    0.000000  0.000000 -0.000000  0.040242 -0.000000 -0.000000
       5    0.000000 -0.000000 -0.000000 -0.000000  0.040242  0.000000
       6   -0.000000 -0.000000  0.000000 -0.000000  0.000000  0.040242

  Mechanical properties :

  Convention :                    Reuss         Voigt         Hill
  Bulk  Modulus (GPa)     =      45.83229      45.83229      45.83229
  Shear Modulus (GPa)     =      27.13408      27.49937      27.31673
  Velocity S-wave (km/s)  =       3.24346       3.26522       3.25436
  Velocity P-wave (km/s)  =       5.63880       5.65552       5.64717
  Compressibility (1/GPa) =    0.02181868
  Stress axis :                     x             y             z
  Youngs Moduli (GPa)     =      76.83322      76.83322      76.83322
  Poissons Ratio (x)      =                     0.22060       0.22060
  Poissons Ratio (y)      =       0.22060                     0.22060
  Poissons Ratio (z)      =       0.22060       0.22060

  Piezoelectric Strain Matrix: (Units=C/m**2)

  Indices      1         2         3         4         5         6
       x     0.00000  -0.00000  -0.00000  -0.00000   0.00000   0.00000
       y     0.00000   0.00000   0.00000   0.00000  -0.00000   0.00000
       z    -0.00000  -0.00000   0.00000   0.00000   0.00000  -0.00000

  Piezoelectric Stress Matrix: (Units=10**-11 C/N)

  Indices      1         2         3         4         5         6
       x     0.00000  -0.00000  -0.00000  -0.00000   0.00000   0.00000
       y    -0.00000   0.00000  -0.00000   0.00000  -0.00000   0.00000
       z    -0.00000  -0.00000   0.00000   0.00000   0.00000  -0.00000

  Static dielectric constant tensor :

              x         y         z
       x     4.46334  -0.00000  -0.00000
       y    -0.00000   4.46334   0.00000
       z    -0.00000   0.00000   4.46334

  Static refractive indices :

    1 =    2.11266      2 =    2.11266      3 =    2.11266

  Time to end of optimisation =       0.0127 seconds

  Timing analysis for GULP :

  Task / Subroutine                                          Time (Seconds)
  Calculation of reciprocal space energy and derivatives          0.0011
  Calculation of real space energy and derivatives                0.0076

  Job Finished at 14:47.48 23rd February   2017