  Job Started  at 11:39.04 27th February   2017

  Number of CPUs =     1

  Total number of configurations input =   1

*  Input for Configuration =   1                                               *

  Formula = Na4I4

  Number of irreducible atoms/shells =       8

  Total number atoms/shells =       8

  Dimensionality = 3               :  Bulk

  Cartesian lattice vectors (Angstroms) :

        6.532000    0.000000    0.000000
        0.000000    6.532000    0.000000
        0.000000    0.000000    6.532000

  Cell parameters (Angstroms/Degrees):

  a =       6.5320    alpha =  90.0000
  b =       6.5320    beta  =  90.0000
  c =       6.5320    gamma =  90.0000

  Initial cell volume =         278.701001 Angs**3

  Temperature of configuration =  0.000     K

  Pressure of configuration =         0.000 GPa

  Fractional coordinates of asymmetric unit :

   No.  Atomic       x           y          z         Charge      Occupancy
        Label      (Frac)      (Frac)     (Frac)        (e)         (Frac)
      1 Na    c    0.000000    0.000000    0.000000     0.98800    1.000000
      2 Na    c    0.000000 *  0.500000 *  0.500000 *   0.98800    1.000000
      3 Na    c    0.500000 *  0.000000 *  0.500000 *   0.98800    1.000000
      4 Na    c    0.500000 *  0.500000 *  0.000000 *   0.98800    1.000000
      5 I     c    0.000000 *  0.000000 *  0.500000 *  -0.98800    1.000000
      6 I     c    0.000000 *  0.500000 *  0.000000 *  -0.98800    1.000000
      7 I     c    0.500000 *  0.000000 *  0.000000 *  -0.98800    1.000000
      8 I     c    0.500000 *  0.500000 *  0.500000 *  -0.98800    1.000000

*  General input information                                                   *

  Species output for all configurations :

  Species    Type    Atomic    Atomic    Charge       Radii (Angs)     Library
                     Number     Mass       (e)     Cova   Ionic  VDW   Symbol
    Na       Core       11      22.99   0.988000   0.970  0.000  2.300
    I        Core       53     126.91  -0.988000   1.400  0.000  2.050

  Lattice summation method               =    Ewald          (3-D)
                                         =    Parry          (2-D)
                                         =    Saunders et al (1-D)
  Accuracy factor for lattice sums       =   12.000

  Time limit = Infinity

  Maximum range for interatomic potentials =    100000.000000 Angstroms

  General interatomic potentials :

Atom  Types   Potential         A         B         C         D     Cutoffs(Ang)
  1     2                                                            Min    Max
Na   c Na   c Buckingham    0.790E+04 0.171      0.00      0.00     0.000 12.000
Na   c I    c Buckingham    0.371E+04 0.310      27.4      0.00     0.000 12.000
I    c I    c Buckingham    0.550E+04 0.307      11.7      0.00     0.000 12.000

*  Output for configuration   1                                                *

  Components of energy :

  Interatomic potentials     =           1.76916371 eV
  Monopole - monopole (real) =          -9.68681525 eV
  Monopole - monopole (recip)=         -20.39791647 eV
  Monopole - monopole (total)=         -30.08473172 eV
  Total lattice energy       =         -28.31556801 eV
  Total lattice energy       =           -2732.0195 kJ/(mole unit cells)

  Number of variables =       27

  Maximum number of calculations  =          1000
  Maximum Hessian update interval =            10
  Maximum step size               =   1.000000000
  Maximum parameter tolerance     =   0.000010000
  Maximum function  tolerance     =   0.000010000
  Maximum gradient  tolerance     =   0.001000000
  Maximum gradient  component     =   0.010000000

  Symmetry not applied to optimisation

  Cell parameters to be optimised using strains

  Newton-Raphson optimiser to be used

  BFGS hessian update to be used

  Start of bulk optimisation :

  ** Hessian calculated **

  **** Optimisation achieved ****

  Final energy =     -28.47796436 eV
  Final Gnorm  =       0.00000006

  Components of energy :

  Interatomic potentials     =           2.72114630 eV
  Monopole - monopole (real) =         -10.04562792 eV
  Monopole - monopole (recip)=         -21.15348275 eV
  Monopole - monopole (total)=         -31.19911066 eV
  Total lattice energy       =         -28.47796436 eV
  Total lattice energy       =           -2747.6882 kJ/(mole unit cells)

  Final fractional coordinates of atoms :

   No.  Atomic        x           y          z          Radius
        Label       (Frac)      (Frac)     (Frac)       (Angs)
     1  Na    c     0.000000    0.000000    0.000000    0.000000
     2  Na    c     0.000000    0.500000    0.500000    0.000000
     3  Na    c     0.500000    0.000000    0.500000    0.000000
     4  Na    c     0.500000    0.500000    0.000000    0.000000
     5  I     c     0.000000    0.000000    0.500000    0.000000
     6  I     c     0.000000    0.500000    0.000000    0.000000
     7  I     c     0.500000    0.000000    0.000000    0.000000
     8  I     c     0.500000    0.500000    0.500000    0.000000

  Final Cartesian lattice vectors (Angstroms) :

        6.298688    0.000000    0.000000
        0.000000    6.298688    0.000000
        0.000000    0.000000    6.298688

  Final cell parameters and derivatives :

       a            6.298688 Angstrom     dE/de1(xx)    -0.000001 eV/strain
       b            6.298688 Angstrom     dE/de2(yy)    -0.000001 eV/strain
       c            6.298688 Angstrom     dE/de3(zz)    -0.000001 eV/strain
       alpha       90.000000 Degrees      dE/de4(yz)     0.000000 eV/strain
       beta        90.000000 Degrees      dE/de5(xz)    -0.000000 eV/strain
       gamma       90.000000 Degrees      dE/de6(xy)    -0.000000 eV/strain

  Primitive cell volume =           249.890827 Angs**3

  Density of cell =      3.984440 g/cm**3

  Non-primitive cell volume =           249.890827 Angs**3

  Final internal derivatives :

   No.  Atomic          a             b             c           Radius
        Label          (eV)          (eV)          (eV)        (eV/Angs)
      1 Na    c       0.000000      0.000000      0.000000      0.000000
      2 Na    c      -0.000000      0.000000      0.000000      0.000000
      3 Na    c       0.000000     -0.000000      0.000000      0.000000
      4 Na    c       0.000000      0.000000      0.000000      0.000000
      5 I     c      -0.000000     -0.000000      0.000000      0.000000
      6 I     c      -0.000000      0.000000     -0.000000      0.000000
      7 I     c       0.000000     -0.000000     -0.000000      0.000000
      8 I     c       0.000000      0.000000      0.000000      0.000000
  Maximum abs         0.000000      0.000000      0.000000      0.000000

  Born effective charge tensors :

  Atom             x           y             z
   1 Na    x       0.9880      0.0000      0.0000
           y       0.0000      0.9880      0.0000
           z       0.0000      0.0000      0.9880
   2 Na    x       0.9880      0.0000      0.0000
           y       0.0000      0.9880      0.0000
           z       0.0000      0.0000      0.9880
   3 Na    x       0.9880      0.0000      0.0000
           y       0.0000      0.9880      0.0000
           z       0.0000      0.0000      0.9880
   4 Na    x       0.9880      0.0000      0.0000
           y       0.0000      0.9880      0.0000
           z       0.0000      0.0000      0.9880
   5 I     x      -0.9880      0.0000      0.0000
           y       0.0000     -0.9880      0.0000
           z       0.0000      0.0000     -0.9880
   6 I     x      -0.9880      0.0000      0.0000
           y       0.0000     -0.9880      0.0000
           z       0.0000      0.0000     -0.9880
   7 I     x      -0.9880      0.0000      0.0000
           y       0.0000     -0.9880      0.0000
           z       0.0000      0.0000     -0.9880
   8 I     x      -0.9880      0.0000      0.0000
           y       0.0000     -0.9880      0.0000
           z       0.0000      0.0000     -0.9880

  Elastic Constant Matrix: (Units=GPa)

  Indices      1         2         3         4         5         6
       1     41.4689    8.5378    8.5378    0.0000   -0.0000   -0.0000
       2      8.5378   41.4689    8.5378   -0.0000   -0.0000   -0.0000
       3      8.5378    8.5378   41.4689   -0.0000   -0.0000    0.0000
       4      0.0000   -0.0000   -0.0000    8.5378    0.0000   -0.0000
       5     -0.0000   -0.0000   -0.0000    0.0000    8.5378    0.0000
       6     -0.0000   -0.0000    0.0000   -0.0000    0.0000    8.5378

  Elastic Compliance Matrix: (Units=1/GPa)

  Indices      1         2         3         4         5         6
       1    0.025938 -0.004428 -0.004428 -0.000000  0.000000  0.000000
       2   -0.004428  0.025938 -0.004428  0.000000  0.000000  0.000000
       3   -0.004428 -0.004428  0.025938  0.000000  0.000000 -0.000000
       4   -0.000000  0.000000  0.000000  0.117127 -0.000000  0.000000
       5    0.000000  0.000000  0.000000 -0.000000  0.117127 -0.000000
       6    0.000000  0.000000 -0.000000  0.000000 -0.000000  0.117127

  Mechanical properties :

  Convention :                    Reuss         Voigt         Hill
  Bulk  Modulus (GPa)     =      19.51480      19.51480      19.51480
  Shear Modulus (GPa)     =      10.57427      11.70888      11.14157
  Velocity S-wave (km/s)  =       1.62908       1.71425       1.67221
  Velocity P-wave (km/s)  =       2.90453       2.96917       2.93702
  Compressibility (1/GPa) =    0.05124316
  Stress axis :                     x             y             z
  Youngs Moduli (GPa)     =      38.55354      38.55354      38.55354
  Poissons Ratio (x)      =                     0.17073       0.17073
  Poissons Ratio (y)      =       0.17073                     0.17073
  Poissons Ratio (z)      =       0.17073       0.17073

  Piezoelectric Strain Matrix: (Units=C/m**2)

  Indices      1         2         3         4         5         6
       x     0.00000   0.00000   0.00000   0.00000   0.00000  -0.00000
       y    -0.00000   0.00000  -0.00000   0.00000   0.00000   0.00000
       z     0.00000   0.00000  -0.00000  -0.00000   0.00000   0.00000

  Piezoelectric Stress Matrix: (Units=10**-11 C/N)

  Indices      1         2         3         4         5         6
       x     0.00000   0.00000   0.00000   0.00000   0.00000  -0.00000
       y    -0.00000   0.00000  -0.00000   0.00000   0.00000   0.00000
       z     0.00000   0.00000  -0.00000  -0.00000   0.00000   0.00000

  Static dielectric constant tensor :

              x         y         z
       x     3.21274   0.00000  -0.00000
       y     0.00000   3.21274  -0.00000
       z    -0.00000  -0.00000   3.21274

  Static refractive indices :

    1 =    1.79241      2 =    1.79241      3 =    1.79241

  Time to end of optimisation =       0.0245 seconds

  Timing analysis for GULP :

  Task / Subroutine                                          Time (Seconds)
  Calculation of reciprocal space energy and derivatives          0.0020
  Calculation of real space energy and derivatives                0.0118
  Calculation of matrix inversion                                 0.0002
  Global summation overhead                                       0.0001

  Job Finished at 11:39.04 27th February   2017