  Job Started  at 13:01.41  9th February   2017

  Number of CPUs =     1

  Total number of configurations input =   1

*  Input for Configuration =   1                                               *

  Formula = K4Cl4

  Number of irreducible atoms/shells =       8

  Total number atoms/shells =       8

  Dimensionality = 3               :  Bulk

  Cartesian lattice vectors (Angstroms) :

        6.395000    0.000000    0.000000
        0.000000    6.395000    0.000000
        0.000000    6.355208    0.712289

  Cell parameters (Angstroms/Degrees):

  a =       6.3950    alpha =   6.3950
  b =       6.3950    beta  =  90.0000
  c =       6.3950    gamma =  90.0000

  Initial cell volume =          29.129798 Angs**3

  Temperature of configuration =  0.000     K

  Pressure of configuration =         0.000 GPa

  Fractional coordinates of asymmetric unit :

   No.  Atomic       x           y          z         Charge      Occupancy
        Label      (Frac)      (Frac)     (Frac)        (e)         (Frac)
      1 K     c    0.000000    0.000000    0.000000     0.98100    1.000000
      2 K     c    0.000000 *  0.500000 *  0.500000 *   0.98100    1.000000
      3 K     c    0.500000 *  0.000000 *  0.500000 *   0.98100    1.000000
      4 K     c    0.500000 *  0.500000 *  0.000000 *   0.98100    1.000000
      5 Cl    c    0.000000 *  0.000000 *  0.500000 *  -0.98100    1.000000
      6 Cl    c    0.000000 *  0.500000 *  0.000000 *  -0.98100    1.000000
      7 Cl    c    0.500000 *  0.000000 *  0.000000 *  -0.98100    1.000000
      8 Cl    c    0.500000 *  0.500000 *  0.500000 *  -0.98100    1.000000

*  General input information                                                   *

  Species output for all configurations :

  Species    Type    Atomic    Atomic    Charge       Radii (Angs)     Library
                     Number     Mass       (e)     Cova   Ionic  VDW   Symbol
    K        Core       19      39.10   0.981000   1.330  0.000  2.800
    Cl       Core       17      35.45  -0.981000   0.990  0.000  1.650

  Lattice summation method               =    Ewald          (3-D)
                                         =    Parry          (2-D)
                                         =    Saunders et al (1-D)
  Accuracy factor for lattice sums       =   12.000

  Time limit = Infinity

  Maximum range for interatomic potentials =    100000.000000 Angstroms

  General interatomic potentials :

Atom  Types   Potential         A         B         C         D     Cutoffs(Ang)
  1     2                                                            Min    Max
K    c K    c Buckingham    0.380E+04 0.260      0.00      0.00     0.000 12.000
Cl   c K    c Buckingham    0.412E+04 0.305      125.      0.00     0.000 12.000
Cl   c Cl   c Buckingham    0.123E+04 0.321      0.00      0.00     0.000 12.000

*  Output for configuration   1                                                *

  Components of energy :

  Interatomic potentials     =        7577.94018751 eV
  Monopole - monopole (real) =         354.16444282 eV
  Monopole - monopole (recip)=          99.33299889 eV
  Monopole - monopole (total)=         453.49744170 eV
  Total lattice energy       =        8031.43762921 eV
  Total lattice energy       =          774910.9595 kJ/(mole unit cells)

  Number of variables =       27

  Maximum number of calculations  =          1000
  Maximum Hessian update interval =            10
  Maximum step size               =   1.000000000
  Maximum parameter tolerance     =   0.000010000
  Maximum function  tolerance     =   0.000010000
  Maximum gradient  tolerance     =   0.001000000
  Maximum gradient  component     =   0.010000000

  Symmetry not applied to optimisation

  Cell parameters to be optimised using strains

  Newton-Raphson optimiser to be used

  BFGS hessian update to be used

  Start of bulk optimisation :

  ** Hessian calculated **
  ** Hessian calculated **
  ** Hessian calculated **
  ** Hessian calculated **
  ** Hessian calculated **
  ** Hessian calculated **
  ** Hessian calculated **
  ** Hessian calculated **
  ** Hessian calculated **

  **** Optimisation achieved ****

  Final energy =     -31.53903730 eV
  Final Gnorm  =       0.00006055

  Components of energy :

  Interatomic potentials     =           1.45818415 eV
  Monopole - monopole (real) =         -10.62459158 eV
  Monopole - monopole (recip)=         -22.37262987 eV
  Monopole - monopole (total)=         -32.99722145 eV
  Total lattice energy       =         -31.53903730 eV
  Total lattice energy       =           -3043.0350 kJ/(mole unit cells)

  Final fractional coordinates of atoms :

   No.  Atomic        x           y          z          Radius
        Label       (Frac)      (Frac)     (Frac)       (Angs)
     1  K     c     0.000000    0.000000    0.000000    0.000000
     2  K     c     1.000000    0.499999    0.500001    0.000000
     3  K     c     0.500000    0.999996    0.500004    0.000000
     4  K     c     0.500000    0.499996    0.000004    0.000000
     5  Cl    c     1.000000    0.999997    0.500004    0.000000
     6  Cl    c     1.000000    0.499996    0.000003    0.000000
     7  Cl    c     0.500000    1.000000    0.000001    0.000000
     8  Cl    c     0.500000    0.499999    0.500001    0.000000

  Final Cartesian lattice vectors (Angstroms) :

        5.871327    0.000000   -0.000000
        0.000000    4.376711   -3.913774
       -0.000000    3.913553    4.376892

  Final cell parameters and derivatives :

       a            5.871327 Angstrom     dE/de1(xx)     0.000013 eV/strain
       b            5.871390 Angstrom     dE/de2(yy)     0.000119 eV/strain
       c            5.871378 Angstrom     dE/de3(zz)     0.001347 eV/strain
       alpha       90.002781 Degrees      dE/de4(yz)    -0.000147 eV/strain
       beta        90.000000 Degrees      dE/de5(xz)    -0.000000 eV/strain
       gamma       90.000000 Degrees      dE/de6(xy)     0.000000 eV/strain

  Primitive cell volume =           202.403128 Angs**3

  Density of cell =      2.446507 g/cm**3

  Non-primitive cell volume =           202.403128 Angs**3

  Final internal derivatives :

   No.  Atomic          a             b             c           Radius
        Label          (eV)          (eV)          (eV)        (eV/Angs)
      1 K     c       0.000000      0.000000      0.000000      0.000000
      2 K     c      -0.000003      0.000109     -0.000113      0.000000
      3 K     c       0.000002     -0.000250      0.000286      0.000000
      4 K     c       0.000002     -0.000294      0.000247      0.000000
      5 Cl    c      -0.000002     -0.000093      0.000322      0.000000
      6 Cl    c      -0.000002     -0.000323      0.000098      0.000000
      7 Cl    c       0.000001      0.000305     -0.000296      0.000000
      8 Cl    c       0.000003      0.000223     -0.000221      0.000000
  Maximum abs         0.000003      0.000323      0.000322      0.000000

  Born effective charge tensors :

  Atom             x           y             z
   1 K     x       0.9810      0.0000      0.0000
           y       0.0000      0.9810      0.0000
           z       0.0000      0.0000      0.9810
   2 K     x       0.9810      0.0000      0.0000
           y       0.0000      0.9810      0.0000
           z       0.0000      0.0000      0.9810
   3 K     x       0.9810      0.0000      0.0000
           y       0.0000      0.9810      0.0000
           z       0.0000      0.0000      0.9810
   4 K     x       0.9810      0.0000      0.0000
           y       0.0000      0.9810      0.0000
           z       0.0000      0.0000      0.9810
   5 Cl    x      -0.9810      0.0000      0.0000
           y       0.0000     -0.9810      0.0000
           z       0.0000      0.0000     -0.9810
   6 Cl    x      -0.9810      0.0000      0.0000
           y       0.0000     -0.9810      0.0000
           z       0.0000      0.0000     -0.9810
   7 Cl    x      -0.9810      0.0000      0.0000
           y       0.0000     -0.9810      0.0000
           z       0.0000      0.0000     -0.9810
   8 Cl    x      -0.9810      0.0000      0.0000
           y       0.0000     -0.9810      0.0000
           z       0.0000      0.0000     -0.9810

  Elastic Constant Matrix: (Units=GPa)

  Indices      1         2         3         4         5         6
       1     68.6894   10.2146   10.2178   -0.0001   -0.0000    0.0000
       2     10.2146   49.8994   28.9967   -2.1047    0.0000   -0.0000
       3     10.2178   28.9967   49.9034    2.1052   -0.0000    0.0000
       4     -0.0001   -2.1047    2.1052   28.9973    0.0000    0.0000
       5     -0.0000    0.0000   -0.0000    0.0000   10.2184   -0.0002
       6      0.0000   -0.0000    0.0000    0.0000   -0.0002   10.2147

  Elastic Compliance Matrix: (Units=1/GPa)

  Indices      1         2         3         4         5         6
       1    0.015142 -0.001960 -0.001962  0.000000  0.000000 -0.000000
       2   -0.001960  0.030865 -0.017682  0.003524 -0.000000  0.000000
       3   -0.001962 -0.017682  0.030863 -0.003524  0.000000 -0.000000
       4    0.000000  0.003524 -0.003524  0.034998 -0.000000 -0.000000
       5    0.000000 -0.000000  0.000000 -0.000000  0.097863  0.000002
       6   -0.000000  0.000000 -0.000000 -0.000000  0.000002  0.097898

  Mechanical properties :

  Convention :                    Reuss         Voigt         Hill
  Bulk  Modulus (GPa)     =      29.70562      29.70562      29.70562
  Shear Modulus (GPa)     =      13.81003      17.82361      15.81682
  Velocity S-wave (km/s)  =       2.37588       2.69913       2.54265
  Velocity P-wave (km/s)  =       4.43491       4.67502       4.55655
  Compressibility (1/GPa) =    0.03366366
  Stress axis :                     x             y             z
  Youngs Moduli (GPa)     =      66.04365      32.39908      32.40106
  Poissons Ratio (x)      =                     0.06349       0.06356
  Poissons Ratio (y)      =       0.12942                     0.57291
  Poissons Ratio (z)      =       0.12955       0.57287

  Piezoelectric Strain Matrix: (Units=C/m**2)

  Indices      1         2         3         4         5         6
       x     0.00000  -0.00000  -0.00000  -0.00000  -0.00002   0.00000
       y     0.00000  -0.00002  -0.00000   0.00009   0.00000  -0.00000
       z    -0.00001   0.00010   0.00005   0.00000  -0.00000   0.00000

  Piezoelectric Stress Matrix: (Units=10**-11 C/N)

  Indices      1         2         3         4         5         6
       x     0.00000  -0.00000  -0.00000   0.00000  -0.00023   0.00003
       y     0.00001  -0.00003   0.00000   0.00030  -0.00000  -0.00000
       z    -0.00005   0.00022  -0.00001   0.00002  -0.00000  -0.00000

  Static dielectric constant tensor :

              x         y         z
       x     2.65628  -0.00000   0.00000
       y    -0.00000   2.65664  -0.00002
       z     0.00000  -0.00002   2.65647

  Static refractive indices :

    1 =    1.62981      2 =    1.62987      3 =    1.62992

  Time to end of optimisation =       0.1155 seconds

  Timing analysis for GULP :

  Task / Subroutine                                          Time (Seconds)
  Calculation of reciprocal space energy and derivatives          0.0112
  Calculation of real space energy and derivatives                0.0987
  Calculation of matrix inversion                                 0.0002
  Global summation overhead                                       0.0001

  Job Finished at 13:01.41  9th February   2017